 vasp.5.4.4.18Apr17-6-g9f103f2a35 (build May 21 2018 20:56:50) complex
 executed on             LinuxGNU date 2021.10.15  15:42:50

 INCAR:
 POTCAR:    PAW_PBE Ni 02Aug2007
 POTCAR:    PAW_PBE Mn 06Sep2000
 POTCAR:    PAW_PBE In 08Apr2002

 POTCAR:    PAW_PBE Ni 02Aug2007
   VRHFIN =Ni:

   TITEL  = PAW_PBE Ni 02Aug2007
   POMASS =   58.690; ZVAL   =   10.000    mass and valenz
   ENMAX  =  269.532; ENMIN  =  202.149 eV

 POTCAR:    PAW_PBE Mn 06Sep2000
   VRHFIN =Mn: d6 s1

   TITEL  = PAW_PBE Mn 06Sep2000
   POMASS =   54.938; ZVAL   =    7.000    mass and valenz
   ENMAX  =  269.864; ENMIN  =  202.398 eV

 POTCAR:    PAW_PBE In 08Apr2002
   VRHFIN =In: s2p1

   TITEL  = PAW_PBE In 08Apr2002
   POMASS =  114.820; ZVAL   =    3.000    mass and valenz
   ENMAX  =   95.934; ENMIN  =   71.951 eV

 Optimization of the real space projectors (new method)

 maximal supplied QI-value         = 16.25
 optimisation between [QCUT,QGAM] = [ 11.86, 23.89] = [ 39.41,159.82] Ry
 Optimized for a Real-space Cutoff    1.33 Angstroem

   l    n(q)    QCUT    max X(q) W(low)/X(q) W(high)/X(q)  e(spline)
   2      9    11.864    60.317    0.21E-03    0.51E-03    0.25E-06
   2      9    11.864    55.921    0.21E-03    0.51E-03    0.26E-06
   0      9    11.864    51.690    0.22E-03    0.30E-04    0.17E-06
   0      9    11.864    30.015    0.20E-03    0.28E-04    0.15E-06
   1      9    11.864    18.849    0.76E-04    0.33E-03    0.17E-06
   1      9    11.864    14.624    0.60E-04    0.28E-03    0.15E-06
 Optimization of the real space projectors (new method)

[...]

   l    n(q)    QCUT    max X(q) W(low)/X(q) W(high)/X(q)  e(spline)
   2      9    11.864   110.144    0.49E-03    0.50E-03    0.21E-06
   2      9    11.864   103.200    0.49E-03    0.51E-03    0.22E-06
   0     10    11.864    68.437    0.12E-03    0.41E-04    0.21E-06
   0     10    11.864    33.971    0.11E-03    0.36E-04    0.19E-06
   1      9    11.864    17.065    0.24E-03    0.26E-03    0.93E-07
   1      9    11.864    12.540    0.19E-03    0.20E-03    0.80E-07
 Optimization of the real space projectors (new method)

 maximal supplied QI-value         = 12.09
 optimisation between [QCUT,QGAM] = [ 11.97, 23.95] = [ 40.14,160.58] Ry
 Optimized for a Real-space Cutoff    1.63 Angstroem

   l    n(q)    QCUT    max X(q) W(low)/X(q) W(high)/X(q)  e(spline)
   0     12    11.973   106.980    0.33E-03    0.16E-03    0.25E-05
   0     12    11.973    81.086    0.37E-03    0.18E-03    0.28E-05
   1     11    11.973    53.097    0.22E-03    0.42E-03    0.40E-05
   1     11    11.973    32.621    0.20E-03    0.40E-03    0.37E-05
   2     11    11.973     8.820    0.30E-03    0.17E-03    0.41E-06
  PAW_PBE Ni 02Aug2007                  :
  PAW_PBE Mn 06Sep2000                  :
  PAW_PBE In 08Apr2002                  :

 POSCAR: Ni2MnIn
  positions in direct lattice
  velocities in cartesian coordinates
 exchange correlation table for  LEXCH =        8
   RHO(1)=    0.500       N(1)  =     2000
   RHO(2)=  100.500       N(2)  =     4000

 ion  position               nearest neighbor table
   1  0.250  0.250  0.269-  11 2.52  12 2.52  14 2.52  13 2.52  15 2.65  10 2.65   9 2.65  16 2.65
                             5 2.76   3 2.98   2 2.98   3 2.98   2 2.98
   2  0.750  0.250  0.269-  11 2.52  12 2.52  14 2.52  13 2.52  15 2.65  10 2.65   9 2.65  16 2.65
                             6 2.76   4 2.98   1 2.98   4 2.98   1 2.98
   3  0.250  0.750  0.269-  11 2.52  12 2.52  14 2.52  13 2.52  15 2.65  10 2.65   9 2.65  16 2.65
                             7 2.76   4 2.98   1 2.98   4 2.98   1 2.98
   4  0.750  0.750  0.269-  11 2.52  12 2.52  14 2.52  13 2.52  15 2.65  10 2.65   9 2.65  16 2.65
                             8 2.76   3 2.98   2 2.98   2 2.98   3 2.98
   5  0.250  0.250  0.731-  11 2.52  12 2.52  14 2.52  13 2.52  15 2.65  10 2.65   9 2.65  16 2.65
                             1 2.76   6 2.98   7 2.98   7 2.98   6 2.98
   6  0.750  0.250  0.731-  11 2.52  12 2.52  14 2.52  13 2.52  15 2.65  10 2.65   9 2.65  16 2.65
                             2 2.76   5 2.98   8 2.98   8 2.98   5 2.98
   7  0.250  0.750  0.731-  11 2.52  12 2.52  14 2.52  13 2.52  15 2.65  10 2.65   9 2.65  16 2.65
                             3 2.76   5 2.98   8 2.98   8 2.98   5 2.98
   8  0.750  0.750  0.731-  11 2.52  12 2.52  14 2.52  13 2.52  15 2.65  10 2.65   9 2.65  16 2.65
                             4 2.76   6 2.98   7 2.98   6 2.98   7 2.98
   9  0.500  0.000  0.000-   1 2.65   2 2.65   3 2.65   4 2.65   5 2.65   6 2.65   7 2.65   8 2.65
                            12 2.98  15 2.98  16 2.98  12 2.98  16 2.98  15 2.98
  10  0.000  0.500  0.000-   1 2.65   2 2.65   3 2.65   4 2.65   5 2.65   6 2.65   7 2.65   8 2.65
                            14 2.98  15 2.98  16 2.98  14 2.98  15 2.98  16 2.98
  11  0.000  0.000  0.500-   1 2.52   2 2.52   3 2.52   4 2.52   5 2.52   6 2.52   7 2.52   8 2.52
                            12 2.98  14 2.98  15 2.98  15 2.98  14 2.98  12 2.98
  12  0.500  0.000  0.500-   1 2.52   2 2.52   3 2.52   4 2.52   5 2.52   6 2.52   7 2.52   8 2.52
                             9 2.98  11 2.98  13 2.98   9 2.98  13 2.98  11 2.98
  13  0.500  0.500  0.500-   1 2.52   2 2.52   3 2.52   4 2.52   5 2.52   6 2.52   7 2.52   8 2.52
                            12 2.98  14 2.98  16 2.98  16 2.98  12 2.98  14 2.98
  14  0.000  0.500  0.500-   1 2.52   2 2.52   3 2.52   4 2.52   5 2.52   6 2.52   7 2.52   8 2.52
                            10 2.98  11 2.98  13 2.98  10 2.98  11 2.98  13 2.98
  15  0.000  0.000  0.000-   1 2.65   2 2.65   3 2.65   4 2.65   5 2.65   6 2.65   7 2.65   8 2.65
                             9 2.98  10 2.98  11 2.98  11 2.98  10 2.98   9 2.98
  16  0.500  0.500  0.000-   1 2.65   2 2.65   3 2.65   4 2.65   5 2.65   6 2.65   7 2.65   8 2.65
                             9 2.98  10 2.98  13 2.98  13 2.98   9 2.98  10 2.98

  LATTYP: Found a simple cubic cell.
 ALAT       =     5.9627323088

  Lattice vectors:

 A1 = (   5.9627323088,   0.0000000000,   0.0000000000)
 A2 = (   0.0000000000,   5.9627323088,   0.0000000000)
 A3 = (   0.0000000000,   0.0000000000,   5.9627323088)

Analysis of symmetry for initial positions (statically):
 Subroutine PRICEL returns:
 Original cell was already a primitive cell.

 Routine SETGRP: Setting up the symmetry group for a
 simple cubic supercell.

 Subroutine GETGRP returns: Found 16 space group operations
 (whereof 16 operations were pure point group operations)
 out of a pool of 48 trial point group operations.

The static configuration has the point symmetry D_4h.

Analysis of symmetry for dynamics (positions and initial velocities):
 Subroutine PRICEL returns:
 Original cell was already a primitive cell.

[...]

The dynamic configuration has the point symmetry D_4h.

Analysis of structural, dynamic, and magnetic symmetry:
 Subroutine PRICEL returns:
 Original cell was already a primitive cell.

 Routine SETGRP: Setting up the symmetry group for a
 simple cubic supercell.

 Subroutine GETGRP returns: Found 16 space group operations
 (whereof 16 operations were pure point group operations)
 out of a pool of 48 trial point group operations.

The magnetic configuration has the point symmetry D_4h.

 Subroutine INISYM returns: Found 16 space group operations
 (whereof 16 operations are pure point group operations),
 and found     1 'primitive' translations

 KPOINTS: k-points

Automatic generation of k-mesh.
Space group operators:
 irot       det(A)        alpha          n_x          n_y          n_z        tau_x        tau_y        tau_z
    1     1.000000     0.000000     1.000000     0.000000     0.000000     0.000000     0.000000     0.000000
    2    -1.000000     0.000000     1.000000     0.000000     0.000000     0.000000     0.000000     0.000000
    3     1.000000    90.000000     0.000000     0.000000    -1.000000     0.000000     0.000000     0.000000
    4    -1.000000    90.000000     0.000000     0.000000    -1.000000     0.000000     0.000000     0.000000
    5     1.000000   180.000000     0.000000     0.000000     1.000000     0.000000     0.000000     0.000000
    6    -1.000000   180.000000     0.000000     0.000000     1.000000     0.000000     0.000000     0.000000
    7     1.000000    90.000000     0.000000     0.000000     1.000000     0.000000     0.000000     0.000000
    8    -1.000000    90.000000     0.000000     0.000000     1.000000     0.000000     0.000000     0.000000
    9     1.000000   180.000000     1.000000     0.000000     0.000000     0.000000     0.000000     0.000000
   10    -1.000000   180.000000     1.000000     0.000000     0.000000     0.000000     0.000000     0.000000
   11     1.000000   180.000000     0.707107     0.707107     0.000000     0.000000     0.000000     0.000000
   12    -1.000000   180.000000     0.707107     0.707107     0.000000     0.000000     0.000000     0.000000
   13     1.000000   180.000000     0.000000     1.000000     0.000000     0.000000     0.000000     0.000000
   14    -1.000000   180.000000     0.000000     1.000000     0.000000     0.000000     0.000000     0.000000
   15     1.000000   180.000000     0.707107    -0.707107     0.000000     0.000000     0.000000     0.000000
   16    -1.000000   180.000000     0.707107    -0.707107     0.000000     0.000000     0.000000     0.000000

 Subroutine IBZKPT returns following result:

 Found     40 irreducible k-points:

 Following reciprocal coordinates:
            Coordinates               Weight
  0.000000  0.000000  0.000000      1.000000
  0.142857  0.000000  0.000000      4.000000
  0.285714  0.000000  0.000000      4.000000
  0.428571  0.000000  0.000000      4.000000
  0.142857  0.142857  0.000000      4.000000
  0.285714  0.142857  0.000000      8.000000
  0.428571  0.142857  0.000000      8.000000
  0.285714  0.285714  0.000000      4.000000
  0.428571  0.285714  0.000000      8.000000
  0.428571  0.428571  0.000000      4.000000
  0.000000  0.000000  0.142857      2.000000
  0.142857  0.000000  0.142857      8.000000
  0.285714  0.000000  0.142857      8.000000
  0.428571  0.000000  0.142857      8.000000
  0.142857  0.142857  0.142857      8.000000
  0.285714  0.142857  0.142857     16.000000
  0.428571  0.142857  0.142857     16.000000
  0.285714  0.285714  0.142857      8.000000
  0.428571  0.285714  0.142857     16.000000
  0.428571  0.428571  0.142857      8.000000
  0.000000  0.000000  0.285714      2.000000
  0.142857  0.000000  0.285714      8.000000
  0.285714  0.000000  0.285714      8.000000
  0.428571  0.000000  0.285714      8.000000
  0.142857  0.142857  0.285714      8.000000
  0.285714  0.142857  0.285714     16.000000
  0.428571  0.142857  0.285714     16.000000
  0.285714  0.285714  0.285714      8.000000
  0.428571  0.285714  0.285714     16.000000
  0.428571  0.428571  0.285714      8.000000
  0.000000  0.000000  0.428571      2.000000
  0.142857  0.000000  0.428571      8.000000
  0.285714  0.000000  0.428571      8.000000
  0.428571  0.000000  0.428571      8.000000
  0.142857  0.142857  0.428571      8.000000
  0.285714  0.142857  0.428571     16.000000
  0.428571  0.142857  0.428571     16.000000
[...]
  in kB     -15.05895   -15.05895     8.26645     0.00000     0.00000    -0.00000

 VOLUME and BASIS-vectors are now :
  energy-cutoff  :      550.00
  volume of cell :      212.00
      direct lattice vectors                 reciprocal lattice vectors
     5.962732309  0.000000000  0.000000000     0.167708351  0.000000000  0.000000000
     0.000000000  5.962732309  0.000000000     0.000000000  0.167708351  0.000000000
     0.000000000  0.000000000  5.962732309     0.000000000  0.000000000  0.167708351

[...]

 FORCES acting on ions
    electron-ion (+dipol)            ewald-force                    non-local-force                 convergence-correction
   -.977E+00 -.977E+00 0.177E+03   0.979E+00 0.979E+00 -.175E+03   0.102E-02 0.102E-02 -.262E+01   0.131E-01 0.131E-01 -.274E-01
   0.977E+00 -.977E+00 0.177E+03   -.979E+00 0.979E+00 -.175E+03   -.102E-02 0.102E-02 -.262E+01   -.131E-01 0.131E-01 -.274E-01
   -.977E+00 0.977E+00 0.177E+03   0.979E+00 -.979E+00 -.175E+03   0.102E-02 -.102E-02 -.262E+01   0.131E-01 -.131E-01 -.274E-01
   0.977E+00 0.977E+00 0.177E+03   -.979E+00 -.979E+00 -.175E+03   -.102E-02 -.102E-02 -.262E+01   -.131E-01 -.131E-01 -.274E-01
   -.977E+00 -.977E+00 -.177E+03   0.979E+00 0.979E+00 0.175E+03   0.102E-02 0.102E-02 0.262E+01   0.131E-01 0.131E-01 0.274E-01
   0.977E+00 -.977E+00 -.177E+03   -.979E+00 0.979E+00 0.175E+03   -.102E-02 0.102E-02 0.262E+01   -.131E-01 0.131E-01 0.274E-01
   -.977E+00 0.977E+00 -.177E+03   0.979E+00 -.979E+00 0.175E+03   0.102E-02 -.102E-02 0.262E+01   0.131E-01 -.131E-01 0.274E-01
   0.977E+00 0.977E+00 -.177E+03   -.979E+00 -.979E+00 0.175E+03   -.102E-02 -.102E-02 0.262E+01   -.131E-01 -.131E-01 0.274E-01
   0.194E-12 -.789E-14 -.654E-12   0.341E-13 0.663E-14 -.284E-14   0.000E+00 0.000E+00 0.000E+00   -.254E-13 0.502E-13 0.110E-12
   -.204E-13 0.218E-12 -.739E-13   0.824E-13 0.380E-13 0.114E-13   0.000E+00 0.000E+00 0.000E+00   -.708E-14 -.678E-13 0.107E-12
   -.291E-13 -.678E-13 0.215E-12   -.603E-13 0.809E-14 0.166E-14   0.000E+00 0.000E+00 0.000E+00   0.933E-14 0.565E-13 -.661E-13
   0.181E-12 -.618E-13 0.161E-11   -.106E-12 -.167E-13 0.152E-14   0.000E+00 0.000E+00 0.000E+00   0.557E-14 0.399E-13 -.103E-12
   0.182E-12 0.199E-12 0.968E-12   -.603E-14 -.399E-13 -.267E-13   0.000E+00 0.000E+00 0.000E+00   0.256E-13 -.614E-13 -.124E-12
   -.352E-13 0.220E-12 0.218E-12   -.232E-15 -.221E-13 0.157E-14   0.000E+00 0.000E+00 0.000E+00   -.174E-13 -.339E-13 -.948E-13
   -.576E-14 -.240E-13 -.274E-13   0.960E-14 -.840E-14 -.144E-13   0.000E+00 0.000E+00 0.000E+00   0.466E-14 0.228E-13 0.295E-13
   -.131E-13 -.491E-12 -.569E-14   0.377E-14 -.354E-14 -.108E-13   0.000E+00 0.000E+00 0.000E+00   0.115E-14 -.216E-13 0.358E-13
   0.146E-10 0.462E-11 0.456E-10   0.146E-13 -.201E-13 -.954E-13   -.607E-17 -.520E-17 0.000E+00   0.889E-13 0.384E-13 -.409E-12

 POSITION                                       TOTAL-FORCE (eV/Angst)
      1.48953      1.48953      1.60119         0.015569      0.015569     -0.000912
      4.47320      1.48953      1.60119        -0.015569      0.015569     -0.000912
      1.48953      4.47320      1.60119         0.015569     -0.015569     -0.000912
      4.47320      4.47320      1.60119        -0.015569     -0.015569     -0.000912
      1.48953      1.48953      4.36155         0.015569      0.015569      0.000912
      4.47320      1.48953      4.36155        -0.015569      0.015569      0.000912
      1.48953      4.47320      4.36155         0.015569     -0.015569      0.000912
      4.47320      4.47320      4.36155        -0.015569     -0.015569      0.000912
      2.98137      0.00000      0.00000        -0.000000     -0.000000      0.000000
      0.00000      2.98137      0.00000        -0.000000     -0.000000      0.000000
      0.00000      0.00000      2.98137        -0.000000     -0.000000      0.000000
      2.98137      0.00000      2.98137        -0.000000     -0.000000      0.000000
      2.98137      2.98137      2.98137        -0.000000     -0.000000      0.000000
      0.00000      2.98137      2.98137        -0.000000     -0.000000      0.000000
      0.00000      0.00000      0.00000        -0.000000     -0.000000      0.000000
      2.98137      2.98137      0.00000        -0.000000     -0.000000      0.000000
    total drift:                                0.000000      0.000000      0.000000

  FREE ENERGIE OF THE ION-ELECTRON SYSTEM (eV)
  free  energy   TOTEN  =      -103.31689876 eV

  energy  without entropy=     -103.31486582  energy(sigma->0) =     -103.31588229

[...]

 d Force = 0.1427227E-03[ 0.980E-04, 0.187E-03]  d Energy = 0.1689564E-03-0.262E-04
 d Force = 0.6939806E-01[ 0.656E-01, 0.732E-01]  d Ewald  = 0.6939804E-01 0.215E-07

 Steepest descent step on ions:
 trial-energy change:   -0.000169  1 .order   -0.000143   -0.000187   -0.000098
  (g-gl).g = 0.187E-03      g.g   = 0.187E-03  gl.gl    = 0.000E+00
 g(Force)  = 0.187E-03   g(Stress)= 0.000E+00 ortho     = 0.000E+00
 gamma     =   0.00000
 trial     =   1.00000
 opt step  =   2.09673  (harmonic =   2.09673) maximal distance =0.00157481
 next E    =  -103.317095   (d E  =  -0.00020)

[...]

 eigenvalue-minimisations  : 13578
 total energy-change (2. order) : 0.8466610E-04  (-0.1827451E-04)
 number of electron     127.9999940 magnetization      18.0465514
 augmentation part       67.7345788 magnetization      13.2509542

 Broyden mixing:
  rms(total) = 0.36110E-02    rms(broyden)= 0.36104E-02
  rms(prec ) = 0.45601E-02
  weight for this iteration     100.00

 eigenvalues of (default mixing * dielectric matrix)
  average eigenvalue GAMMA=   0.3845
  0.4975  0.2714

[...]

--------------------------------------- Iteration      3(   4)  ---------------------------------------

 eigenvalue-minimisations  :  8688
 total energy-change (2. order) :-0.4902504E-06  (-0.2803400E-05)
 number of electron     127.9999940 magnetization      18.0465514
 augmentation part       67.7345788 magnetization      13.2509542

 Free energy of the ion-electron system (eV)
  alpha Z        PSCENC =       530.77617372
  Ewald energy   TEWEN  =     -9280.60985076
  -Hartree energ DENC   =     -2938.40537444
  -exchange      EXHF   =         0.00000000
  -V(xc)+E(xc)   XCENC  =        75.71106422
  PAW double counting   =     12899.70767056   -13244.37583812
  entropy T*S    EENTRO =        -0.00201981
  eigenvalues    EBANDS =       624.41907868
  atomic energy  EATOM  =     11229.46195210
  Solvation  Ediel_sol  =         0.00000000
  free energy    TOTEN  =      -103.31714384 eV

  energy without entropy =     -103.31512403  energy(sigma->0) =     -103.31613394

 average (electrostatic) potential at core
  the test charge radii are     0.9791  1.0210  1.4837
  (the norm of the test charge is              1.0000)
       1 -83.9550       2 -83.9550       3 -83.9550       4 -83.9550       5 -83.9550
       6 -83.9550       7 -83.9550       8 -83.9550       9 -42.4790      10 -42.4790
      11 -42.5693      12 -42.3538      13 -42.2541      14 -42.3538      15 -34.5875
      16 -34.6570

 E-fermi :   7.3848     XC(G=0): -12.2865     alpha+bet :-14.1122

[...]

 spin component 2

[...]

 k-point    40 :       0.4286    0.4286    0.4286
  band No.  band energies     occupation
      1       0.0155      1.00000
      2       0.2077      1.00000
      3       1.5275      1.00000
      4       1.7438      1.00000
      5       1.8875      1.00000
      6       1.9581      1.00000
      7       2.5681      1.00000
      8       2.8001      1.00000
      9       3.7565      1.00000
     10       3.9557      1.00000
     11       4.1690      1.00000
     12       4.1987      1.00000
     13       4.2322      1.00000
     14       4.5981      1.00000
     15       4.6826      1.00000
     16       4.7293      1.00000
     17       4.8346      1.00000
     18       4.8649      1.00000
     19       4.9237      1.00000
     20       4.9697      1.00000
     21       4.9996      1.00000
     22       5.0359      1.00000
     23       5.1000      1.00000
     24       5.1167      1.00000
     25       5.2624      1.00000
     26       5.2882      1.00000
     27       5.3460      1.00000
     28       5.3531      1.00000
     29       5.3736      1.00000
     30       5.3813      1.00000
     31       5.4278      1.00000
     32       5.4362      1.00000
     33       5.4542      1.00000
     34       5.4952      1.00000
     35       5.5034      1.00000
     36       5.5434      1.00000
     37       5.5663      1.00000
     38       5.5761      1.00000
     39       5.6434      1.00000
     40       5.6497      1.00000
     41       5.6587      1.00000
     42       5.7018      1.00000
     43       5.8304      1.00000
     44       5.8364      1.00000
     45       5.8802      1.00000
     46       5.8850      1.00000
     47       6.0701      1.00000
     48       6.1197      1.00000
     49       6.2552      1.00000
     50       6.3744      1.00000
     51       6.4959      1.00000
     52       6.7047      1.00000
     53       6.7193      1.00000
     54       7.9610      0.00000
     55       7.9778      0.00000
     56       7.9913      0.00000
     57       8.0691      0.00000
     58       8.1208      0.00000
     59       8.1728      0.00000
     60       8.1918      0.00000
[...]
     70       8.7043      0.00000
     71       8.7816      0.00000
     72       8.7949      0.00000
     73       8.8118      0.00000
     74       8.9099      0.00000
     75       8.9875      0.00000
     76       9.0051      0.00000
     77       9.1553      0.00000
     78       9.1570      0.00000
     79      11.2704      0.00000
     80      11.7043      0.00000
     81      11.8747      0.00000
     82      11.9442      0.00000
     83      12.2248      0.00000
     84      12.2357      0.00000

[...]

 soft charge-density along one line, spin component           2
         0         1         2         3         4         5         6         7         8         9
 total charge-density along one line

------------------------ aborting loop because EDIFF is reached ----------------------------------------

[...]

  FORCE on cell =-STRESS in cart. coord.  units (eV):
  Direction    XX          YY          ZZ          XY          YZ          ZX
  Alpha Z   530.77617   530.77617   530.77617
  Ewald   -2972.36741 -2972.36741 -3335.90353    -0.00000    -0.00000    -0.00000
  Hartree  1091.74163  1091.74163   754.64314    -0.00000    -0.00000    -0.00000
  E(xc)    -670.63411  -670.63411  -671.11400    -0.00000    -0.00000    -0.00000
  Local    -474.26706  -474.26706   223.81731    -0.00000     0.00000     0.00000
  n-local  -149.27077  -145.60826  -146.92259    -0.15783    -0.95357     0.31355
  augment  1578.85958  1578.85958  1580.78821    -0.00000    -0.00000     0.00000
  Kinetic  1052.55985  1069.57966  1064.69623     0.55943    -0.25514     0.91284
  Fock        0.00000     0.00000     0.00000     0.00000     0.00000     0.00000
  Total      -2.26095    -2.26095     0.78095     0.00000     0.00000     0.00000
  in kB     -17.08700   -17.08700     5.90202     0.00000     0.00000     0.00000

 VOLUME and BASIS-vectors are now :
  energy-cutoff  :      550.00
  volume of cell :      212.00
      direct lattice vectors                 reciprocal lattice vectors
     5.962732309  0.000000000  0.000000000     0.167708351  0.000000000  0.000000000
     0.000000000  5.962732309  0.000000000     0.000000000  0.167708351  0.000000000
     0.000000000  0.000000000  5.962732309     0.000000000  0.000000000  0.167708351

  length of vectors
     5.962732309  5.962732309  5.962732309     0.167708351  0.167708351  0.167708351

 FORCES acting on ions
    electron-ion (+dipol)            ewald-force                    non-local-force                 convergence-correction
   0.368E+00 0.368E+00 0.177E+03   -.359E+00 -.359E+00 -.175E+03   -.277E-01 -.277E-01 -.262E+01   0.193E-01 0.193E-01 -.229E-01
   -.368E+00 0.368E+00 0.177E+03   0.359E+00 -.359E+00 -.175E+03   0.277E-01 -.277E-01 -.262E+01   -.193E-01 0.193E-01 -.229E-01
   0.368E+00 -.368E+00 0.177E+03   -.359E+00 0.359E+00 -.175E+03   -.277E-01 0.277E-01 -.262E+01   0.193E-01 -.193E-01 -.229E-01
   -.368E+00 -.368E+00 0.177E+03   0.359E+00 0.359E+00 -.175E+03   0.277E-01 0.277E-01 -.262E+01   -.193E-01 -.193E-01 -.229E-01
   0.368E+00 0.368E+00 -.177E+03   -.359E+00 -.359E+00 0.175E+03   -.277E-01 -.277E-01 0.262E+01   0.193E-01 0.193E-01 0.229E-01
   -.368E+00 0.368E+00 -.177E+03   0.359E+00 -.359E+00 0.175E+03   0.277E-01 -.277E-01 0.262E+01   -.193E-01 0.193E-01 0.229E-01
   0.368E+00 -.368E+00 -.177E+03   -.359E+00 0.359E+00 0.175E+03   -.277E-01 0.277E-01 0.262E+01   0.193E-01 -.193E-01 0.229E-01
   -.368E+00 -.368E+00 -.177E+03   0.359E+00 0.359E+00 0.175E+03   0.277E-01 0.277E-01 0.262E+01   -.193E-01 -.193E-01 0.229E-01
   0.182E-12 -.986E-14 -.602E-12   -.796E-13 -.758E-14 0.114E-13   0.000E+00 0.000E+00 0.000E+00   0.132E-11 -.355E-12 -.137E-12
   -.695E-13 0.180E-12 -.311E-13   0.682E-13 -.188E-13 -.282E-14   0.000E+00 0.000E+00 0.000E+00   -.666E-12 0.209E-12 -.801E-12
   -.924E-13 -.783E-13 0.206E-12   -.177E-13 -.612E-14 0.166E-14   0.000E+00 0.000E+00 0.000E+00   0.720E-12 0.336E-12 -.223E-12
   0.161E-12 -.692E-13 0.161E-11   -.203E-13 -.167E-13 -.127E-13   0.000E+00 0.000E+00 0.000E+00   -.731E-12 0.334E-12 -.232E-12
   0.151E-12 0.138E-12 0.953E-12   -.134E-12 -.115E-13 -.267E-13   0.000E+00 0.000E+00 0.000E+00   -.132E-11 -.338E-12 0.315E-12
   -.922E-13 0.159E-12 0.205E-12   0.282E-13 -.790E-14 0.584E-13   0.000E+00 0.000E+00 0.000E+00   0.133E-11 -.321E-12 0.334E-12
   -.291E-13 -.292E-13 -.401E-14   0.274E-13 -.155E-13 -.370E-14   0.000E+00 0.000E+00 0.000E+00   -.269E-12 -.565E-13 -.662E-13
   -.148E-13 -.507E-12 0.151E-13   -.689E-14 -.249E-13 0.141E-13   0.000E+00 0.000E+00 0.000E+00   0.760E-13 0.557E-13 -.202E-12
   0.798E-11 0.120E-10 -.420E-10   -.138E-13 0.367E-13 0.680E-13   -.347E-17 0.208E-16 -.444E-15   0.196E-11 -.264E-11 0.216E-10

 POSITION                                       TOTAL-FORCE (eV/Angst)
      1.49111      1.49111      1.60109        -0.000124     -0.000124     -0.000256
      4.47163      1.49111      1.60109         0.000124     -0.000124     -0.000256
      1.49111      4.47163      1.60109        -0.000124      0.000124     -0.000256
      4.47163      4.47163      1.60109         0.000124      0.000124     -0.000256
      1.49111      1.49111      4.36164        -0.000124     -0.000124      0.000256
      4.47163      1.49111      4.36164         0.000124     -0.000124      0.000256
      1.49111      4.47163      4.36164        -0.000124      0.000124      0.000256
      4.47163      4.47163      4.36164         0.000124      0.000124      0.000256
      2.98137     -0.00000      0.00000        -0.000000     -0.000000      0.000000
     -0.00000      2.98137      0.00000        -0.000000     -0.000000      0.000000
     -0.00000     -0.00000      2.98137        -0.000000     -0.000000      0.000000
      2.98137     -0.00000      2.98137        -0.000000     -0.000000      0.000000
      2.98137      2.98137      2.98137        -0.000000     -0.000000      0.000000
     -0.00000      2.98137      2.98137        -0.000000     -0.000000      0.000000
     -0.00000     -0.00000      0.00000        -0.000000     -0.000000      0.000000
      2.98137      2.98137      0.00000        -0.000000     -0.000000      0.000000
    total drift:                                0.000000      0.000000     -0.000000

  FREE ENERGIE OF THE ION-ELECTRON SYSTEM (eV)
  free  energy   TOTEN  =      -103.31714384 eV

  energy  without entropy=     -103.31512403  energy(sigma->0) =     -103.31613394

 d Force = 0.5298772E-04[-0.154E-05, 0.108E-03]  d Energy = 0.7612816E-04-0.231E-04
 d Force = 0.6727891E-01[ 0.627E-01, 0.719E-01]  d Ewald  = 0.6727889E-01 0.256E-07

 reached required accuracy - stopping structural energy minimisation

 total charge

[...]

 magnetization (x)

# of ion       s       p       d       tot
    1       -0.013  -0.007   0.433   0.413
    2       -0.013  -0.009   0.409   0.388
    3       -0.008  -0.009   0.414   0.397
    4       -0.011  -0.000   0.440   0.429
    5       -0.011  -0.000   0.440   0.429
    6       -0.008  -0.009   0.414   0.397
    7       -0.013  -0.009   0.409   0.388
    8       -0.013  -0.007   0.433   0.413
    9        0.028   0.031   3.607   3.666
   10        0.030   0.029   3.604   3.664
   11       -0.034  -0.054  -3.318  -3.406
   12        0.023   0.038   3.490   3.551
   13        0.025   0.013   3.373   3.411
   14        0.024   0.022   3.464   3.510
   15       -0.009  -0.020  -0.002  -0.031
   16        0.008  -0.144  -0.007  -0.142
tot          0.006  -0.135  17.605  17.475