 vasp.5.4.4.18Apr17-6-g9f103f2a35 (build May 21 2018 20:56:50) complex
 executed on             LinuxGNU date 2021.10.15  15:42:18

 INCAR:
 POTCAR:    PAW_PBE Ni 02Aug2007
 POTCAR:    PAW_PBE Mn 06Sep2000
 POTCAR:    PAW_PBE In 08Apr2002

 POTCAR:    PAW_PBE Ni 02Aug2007
   VRHFIN =Ni:

   TITEL  = PAW_PBE Ni 02Aug2007
   POMASS =   58.690; ZVAL   =   10.000    mass and valenz
   ENMAX  =  269.532; ENMIN  =  202.149 eV

 POTCAR:    PAW_PBE Mn 06Sep2000
   VRHFIN =Mn: d6 s1

   TITEL  = PAW_PBE Mn 06Sep2000
   POMASS =   54.938; ZVAL   =    7.000    mass and valenz
   ENMAX  =  269.864; ENMIN  =  202.398 eV

 POTCAR:    PAW_PBE In 08Apr2002
   VRHFIN =In: s2p1

   TITEL  = PAW_PBE In 08Apr2002
   POMASS =  114.820; ZVAL   =    3.000    mass and valenz
   ENMAX  =   95.934; ENMIN  =   71.951 eV

 Optimization of the real space projectors (new method)

 maximal supplied QI-value         = 16.25
 optimisation between [QCUT,QGAM] = [ 11.86, 23.89] = [ 39.41,159.82] Ry
 Optimized for a Real-space Cutoff    1.33 Angstroem

   l    n(q)    QCUT    max X(q) W(low)/X(q) W(high)/X(q)  e(spline)
   2      9    11.864    60.317    0.21E-03    0.51E-03    0.25E-06
   2      9    11.864    55.921    0.21E-03    0.51E-03    0.26E-06
   0      9    11.864    51.690    0.22E-03    0.30E-04    0.17E-06
   0      9    11.864    30.015    0.20E-03    0.28E-04    0.15E-06
   1      9    11.864    18.849    0.76E-04    0.33E-03    0.17E-06
   1      9    11.864    14.624    0.60E-04    0.28E-03    0.15E-06
 Optimization of the real space projectors (new method)

[...]

   l    n(q)    QCUT    max X(q) W(low)/X(q) W(high)/X(q)  e(spline)
   2      9    11.864   110.144    0.49E-03    0.50E-03    0.21E-06
   2      9    11.864   103.200    0.49E-03    0.51E-03    0.22E-06
   0     10    11.864    68.437    0.12E-03    0.41E-04    0.21E-06
   0     10    11.864    33.971    0.11E-03    0.36E-04    0.19E-06
   1      9    11.864    17.065    0.24E-03    0.26E-03    0.93E-07
   1      9    11.864    12.540    0.19E-03    0.20E-03    0.80E-07
 Optimization of the real space projectors (new method)

 maximal supplied QI-value         = 12.09
 optimisation between [QCUT,QGAM] = [ 11.97, 23.95] = [ 40.14,160.58] Ry
 Optimized for a Real-space Cutoff    1.63 Angstroem

   l    n(q)    QCUT    max X(q) W(low)/X(q) W(high)/X(q)  e(spline)
   0     12    11.973   106.980    0.33E-03    0.16E-03    0.25E-05
   0     12    11.973    81.086    0.37E-03    0.18E-03    0.28E-05
   1     11    11.973    53.097    0.22E-03    0.42E-03    0.40E-05
   1     11    11.973    32.621    0.20E-03    0.40E-03    0.37E-05
   2     11    11.973     8.820    0.30E-03    0.17E-03    0.41E-06
  PAW_PBE Ni 02Aug2007                  :
  PAW_PBE Mn 06Sep2000                  :
  PAW_PBE In 08Apr2002                  :

 POSCAR: Ni2MnIn
  positions in direct lattice
  velocities in cartesian coordinates
 exchange correlation table for  LEXCH =        8
   RHO(1)=    0.500       N(1)  =     2000
   RHO(2)=  100.500       N(2)  =     4000

 ion  position               nearest neighbor table
   1  0.250  0.268  0.268-  14 2.46  13 2.46  10 2.59  11 2.59   9 2.59  12 2.59  15 2.71  16 2.71
                             3 2.77   5 2.77   2 2.98   2 2.98
   2  0.750  0.268  0.268-  14 2.46  13 2.46  10 2.59  11 2.59   9 2.59  12 2.59  15 2.71  16 2.71
                             4 2.77   6 2.77   1 2.98   1 2.98
   3  0.250  0.732  0.268-  14 2.46  13 2.46  10 2.59  11 2.59   9 2.59  12 2.59  15 2.71  16 2.71
                             1 2.77   7 2.77   4 2.98   4 2.98
   4  0.750  0.732  0.268-  14 2.46  13 2.46  10 2.59  11 2.59   9 2.59  12 2.59  15 2.71  16 2.71
                             2 2.77   8 2.77   3 2.98   3 2.98
   5  0.250  0.268  0.732-  14 2.46  13 2.46  10 2.59  11 2.59   9 2.59  12 2.59  15 2.71  16 2.71
                             1 2.77   7 2.77   6 2.98   6 2.98
   6  0.750  0.268  0.732-  14 2.46  13 2.46  10 2.59  11 2.59   9 2.59  12 2.59  15 2.71  16 2.71
                             2 2.77   8 2.77   5 2.98   5 2.98
   7  0.250  0.732  0.732-  14 2.46  13 2.46  10 2.59  11 2.59   9 2.59  12 2.59  15 2.71  16 2.71
                             3 2.77   5 2.77   8 2.98   8 2.98
   8  0.750  0.732  0.732-  14 2.46  13 2.46  10 2.59  11 2.59   9 2.59  12 2.59  15 2.71  16 2.71
                             4 2.77   6 2.77   7 2.98   7 2.98
   9  0.500  0.500  0.000-   1 2.59   2 2.59   3 2.59   4 2.59   5 2.59   6 2.59   7 2.59   8 2.59
                            10 2.98  13 2.98  16 2.98  13 2.98  16 2.98  10 2.98
  10  0.000  0.500  0.000-   1 2.59   2 2.59   3 2.59   4 2.59   5 2.59   6 2.59   7 2.59   8 2.59
                             9 2.98  14 2.98  15 2.98  14 2.98  15 2.98   9 2.98
  11  0.000  0.000  0.500-   1 2.59   2 2.59   3 2.59   4 2.59   5 2.59   6 2.59   7 2.59   8 2.59
                            12 2.98  14 2.98  15 2.98  15 2.98  14 2.98  12 2.98
  12  0.500  0.000  0.500-   1 2.59   2 2.59   3 2.59   4 2.59   5 2.59   6 2.59   7 2.59   8 2.59
                            11 2.98  13 2.98  16 2.98  16 2.98  13 2.98  11 2.98
  13  0.500  0.500  0.500-   1 2.46   2 2.46   3 2.46   4 2.46   5 2.46   6 2.46   7 2.46   8 2.46
                             9 2.98  12 2.98  14 2.98   9 2.98  12 2.98  14 2.98
  14  0.000  0.500  0.500-   1 2.46   2 2.46   3 2.46   4 2.46   5 2.46   6 2.46   7 2.46   8 2.46
                            10 2.98  11 2.98  13 2.98  10 2.98  11 2.98  13 2.98
  15  0.000  0.000  0.000-   1 2.71   2 2.71   3 2.71   4 2.71   5 2.71   6 2.71   7 2.71   8 2.71
                            10 2.98  11 2.98  16 2.98  11 2.98  10 2.98  16 2.98
  16  0.500  0.000  0.000-   1 2.71   2 2.71   3 2.71   4 2.71   5 2.71   6 2.71   7 2.71   8 2.71
                             9 2.98  12 2.98  15 2.98  12 2.98   9 2.98  15 2.98

  LATTYP: Found a simple cubic cell.
 ALAT       =     5.9667055476

  Lattice vectors:

 A1 = (   5.9667055476,   0.0000000000,   0.0000000000)
 A2 = (   0.0000000000,   5.9667055476,   0.0000000000)
 A3 = (   0.0000000000,   0.0000000000,   5.9667055476)

Analysis of symmetry for initial positions (statically):
 Subroutine PRICEL returns following result:

  LATTYP: Found a simple tetragonal cell.
 ALAT       =     5.9667055476
 C/A-ratio  =     0.5000000000

[...]

   2 primitive cells build up your supercell.

 Routine SETGRP: Setting up the symmetry group for a
 simple cubic supercell.

 Subroutine GETGRP returns: Found 16 space group operations
 (whereof 16 operations were pure point group operations)
 out of a pool of 48 trial point group operations.

The static configuration has the point symmetry D_4h.

Analysis of symmetry for dynamics (positions and initial velocities):
 Subroutine PRICEL returns following result:

  LATTYP: Found a simple tetragonal cell.
 ALAT       =     5.9667055476
 C/A-ratio  =     0.5000000000

  Lattice vectors:

 A1 = (   0.0000000000,   5.9667055476,   0.0000000000)
 A2 = (   0.0000000000,   0.0000000000,  -5.9667055476)
 A3 = (  -2.9833527738,   0.0000000000,   0.0000000000)

   2 primitive cells build up your supercell.

[...]

The dynamic configuration has the point symmetry D_4h.

Analysis of structural, dynamic, and magnetic symmetry:
 Subroutine PRICEL returns:
 Original cell was already a primitive cell.

 Routine SETGRP: Setting up the symmetry group for a
 simple cubic supercell.

 Subroutine GETGRP returns: Found 16 space group operations
 (whereof 16 operations were pure point group operations)
 out of a pool of 48 trial point group operations.

The magnetic configuration has the point symmetry D_4h.

 Subroutine INISYM returns: Found 16 space group operations
 (whereof 16 operations are pure point group operations),
 and found     1 'primitive' translations

 KPOINTS: k-points

Automatic generation of k-mesh.
Space group operators:
 irot       det(A)        alpha          n_x          n_y          n_z        tau_x        tau_y        tau_z
    1     1.000000     0.000000     1.000000     0.000000     0.000000     0.000000     0.000000     0.000000
    2    -1.000000     0.000000     1.000000     0.000000     0.000000     0.000000     0.000000     0.000000
    3     1.000000   180.000000     0.000000     0.707107     0.707107     0.000000     0.000000     0.000000
    4    -1.000000   180.000000     0.000000     0.707107     0.707107     0.000000     0.000000     0.000000
    5     1.000000   180.000000     0.000000     0.000000     1.000000     0.000000     0.000000     0.000000
    6    -1.000000   180.000000     0.000000     0.000000     1.000000     0.000000     0.000000     0.000000
    7     1.000000    90.000000    -1.000000     0.000000     0.000000     0.000000     0.000000     0.000000
    8    -1.000000    90.000000    -1.000000     0.000000     0.000000     0.000000     0.000000     0.000000
    9     1.000000   180.000000     1.000000     0.000000     0.000000     0.000000     0.000000     0.000000
   10    -1.000000   180.000000     1.000000     0.000000     0.000000     0.000000     0.000000     0.000000
   11     1.000000    90.000000     1.000000     0.000000     0.000000     0.000000     0.000000     0.000000
   12    -1.000000    90.000000     1.000000     0.000000     0.000000     0.000000     0.000000     0.000000
   13     1.000000   180.000000     0.000000     1.000000     0.000000     0.000000     0.000000     0.000000
   14    -1.000000   180.000000     0.000000     1.000000     0.000000     0.000000     0.000000     0.000000
   15     1.000000   180.000000     0.000000    -0.707107     0.707107     0.000000     0.000000     0.000000
   16    -1.000000   180.000000     0.000000    -0.707107     0.707107     0.000000     0.000000     0.000000

 Subroutine IBZKPT returns following result:

 Found     40 irreducible k-points:

 Following reciprocal coordinates:
            Coordinates               Weight
  0.000000  0.000000  0.000000      1.000000
  0.142857  0.000000  0.000000      2.000000
  0.285714  0.000000  0.000000      2.000000
  0.428571  0.000000  0.000000      2.000000
  0.000000  0.142857  0.000000      4.000000
  0.142857  0.142857  0.000000      8.000000
  0.285714  0.142857  0.000000      8.000000
  0.428571  0.142857  0.000000      8.000000
  0.000000  0.285714  0.000000      4.000000
  0.142857  0.285714  0.000000      8.000000
  0.285714  0.285714  0.000000      8.000000
  0.428571  0.285714  0.000000      8.000000
  0.000000  0.428571  0.000000      4.000000
  0.142857  0.428571  0.000000      8.000000
  0.285714  0.428571  0.000000      8.000000
  0.428571  0.428571  0.000000      8.000000
  0.000000  0.142857  0.142857      4.000000
  0.142857  0.142857  0.142857      8.000000
  0.285714  0.142857  0.142857      8.000000
  0.428571  0.142857  0.142857      8.000000
  0.000000  0.285714  0.142857      8.000000
  0.142857  0.285714  0.142857     16.000000
  0.285714  0.285714  0.142857     16.000000
  0.428571  0.285714  0.142857     16.000000
  0.000000  0.428571  0.142857      8.000000
  0.142857  0.428571  0.142857     16.000000
  0.285714  0.428571  0.142857     16.000000
  0.428571  0.428571  0.142857     16.000000
  0.000000  0.285714  0.285714      4.000000
[...]
 Maximum number of real-space cells 3x 3x 3
 Maximum number of reciprocal cells 3x 3x 3

--------------------------------------- Iteration      1(   1)  ---------------------------------------

 eigenvalue-minimisations  : 13440
 total energy-change (2. order) : 0.1070329E+04  (-0.5425786E+04)
 number of electron     128.0000000 magnetization       0.8000000
 augmentation part      128.0000000 magnetization       0.8000000

 Free energy of the ion-electron system (eV)
  alpha Z        PSCENC =       529.71654554
  Ewald energy   TEWEN  =     -9156.92055239
  -Hartree energ DENC   =     -3262.93339623
  -exchange      EXHF   =         0.00000000
  -V(xc)+E(xc)   XCENC  =        78.34954833
  PAW double counting   =     10320.96726947   -10647.99417394
  entropy T*S    EENTRO =        -0.00131045
  eigenvalues    EBANDS =      1979.68282289
  atomic energy  EATOM  =     11229.46195210
  Solvation  Ediel_sol  =         0.00000000
  free energy    TOTEN  =      1070.32870531 eV

  energy without entropy =     1070.33001577  energy(sigma->0) =     1070.32936054

[...]

 eigenvalue-minimisations  : 13440
 total energy-change (2. order) :-0.1068254E+04  (-0.1035064E+04)
 number of electron     128.0000000 magnetization       0.8000000
 augmentation part      128.0000000 magnetization       0.8000000

[...]

 Broyden mixing:
  rms(total) = 0.34853E+01    rms(broyden)= 0.34853E+01
  rms(prec ) = 0.53435E+01
  weight for this iteration     100.00

[...]

 eigenvalues of (default mixing * dielectric matrix)
  average eigenvalue GAMMA=   0.2334
  0.2334

[...]

 eigenvalue-minimisations  : 14069
 total energy-change (2. order) : 0.4683463E-04  (-0.1989949E-04)
 number of electron     128.0000148 magnetization       0.0004159
 augmentation part       67.7147059 magnetization      -0.0004486

 Broyden mixing:
  rms(total) = 0.36292E-02    rms(broyden)= 0.36287E-02
  rms(prec ) = 0.50612E-02
  weight for this iteration     100.00

 eigenvalues of (default mixing * dielectric matrix)
  average eigenvalue GAMMA=   0.8919
  2.3881  2.3881  1.2982  1.2982  0.8127  0.8127  0.7184  0.7184  0.6073  0.5389
  0.1372  0.2065  0.2434  0.3192

[...]

--------------------------------------- Iteration      1(  20)  ---------------------------------------

 eigenvalue-minimisations  :  8953
 total energy-change (2. order) :-0.1437711E-05  (-0.2470995E-05)
 number of electron     128.0000148 magnetization       0.0004159
 augmentation part       67.7147059 magnetization      -0.0004486

 Free energy of the ion-electron system (eV)
  alpha Z        PSCENC =       529.71654554
  Ewald energy   TEWEN  =     -9156.92055239
  -Hartree energ DENC   =     -3062.75876038
  -exchange      EXHF   =         0.00000000
  -V(xc)+E(xc)   XCENC  =        75.28862275
  PAW double counting   =     12847.92715165   -13192.23215620
  entropy T*S    EENTRO =        -0.00194055
  eigenvalues    EBANDS =       626.27339364
  atomic energy  EATOM  =     11229.46195210
  Solvation  Ediel_sol  =         0.00000000
  free energy    TOTEN  =      -103.24574385 eV

  energy without entropy =     -103.24380330  energy(sigma->0) =     -103.24477357

 average (electrostatic) potential at core
  the test charge radii are     0.9791  1.0210  1.4837
  (the norm of the test charge is              1.0000)
       1 -83.9236       2 -83.9236       3 -83.9236       4 -83.9236       5 -83.9236
       6 -83.9236       7 -83.9236       8 -83.9236       9 -42.4138      10 -42.4138
      11 -42.4138      12 -42.4138      13 -42.4293      14 -42.4293      15 -34.8863
      16 -34.8868

 E-fermi :   7.2955     XC(G=0): -12.2740     alpha+bet :-14.0840

 spin component 1

 k-point     1 :       0.0000    0.0000    0.0000
  band No.  band energies     occupation
      1      -2.0337      1.00000
      2       1.5952      1.00000
      3       1.9022      1.00000
      4       2.1669      1.00000
      5       2.3078      1.00000
      6       2.3078      1.00000
      7       2.9446      1.00000
      8       3.0240      1.00000
      9       3.1468      1.00000
     10       3.1468      1.00000
     11       3.1868      1.00000
     12       3.1931      1.00000
     13       3.4872      1.00000
     14       3.8247      1.00000
     15       3.9543      1.00000
     16       4.1895      1.00000
     17       4.1895      1.00000
     18       4.4498      1.00000
     19       4.4647      1.00000
     20       4.4647      1.00000
     21       4.4746      1.00000
     22       4.6210      1.00000
     23       4.6210      1.00000
     24       4.7802      1.00000
     25       4.9808      1.00000
     26       5.0207      1.00000
     27       5.0207      1.00000
     28       5.1881      1.00000
     29       5.2475      1.00000
     30       5.2778      1.00000
     31       5.2778      1.00000
     32       5.4577      1.00000
     33       5.4577      1.00000
     34       5.5034      1.00000
     35       5.5034      1.00000
     36       5.5160      1.00000
     37       5.6423      1.00000
     38       5.6878      1.00000
     39       5.7595      1.00000
     40       5.7802      1.00000
     41       5.7802      1.00000
     42       5.8360      1.00000
     43       5.8778      1.00000
     44       6.0948      1.00000
     45       6.0985      1.00000
     46       6.1031      1.00000
     47       6.1031      1.00000
     48       6.1564      1.00000
     49       6.1887      1.00000
     50       6.2000      1.00000
     51       6.4684      1.00000
     52       6.4933      1.00000
     53       6.4933      1.00000
     54       6.5001      1.00000
     55       6.5457      1.00000
     56       6.5525      1.00000
     57       6.5525      1.00000
     58       6.5545      1.00000
     59       6.6434      1.00000
     60       6.7687      1.00000
[...]
     70       7.7459      0.00000
     71       7.7459      0.00000
     72       8.3046      0.00000
     73       8.3619      0.00000
     74       8.4887      0.00000
     75       8.4887      0.00000
     76       8.7835      0.00000
     77       8.9048      0.00000
     78       9.0585      0.00000
     79       9.0585      0.00000
     80       9.1126      0.00000
     81       9.2222      0.00000
     82       9.5818      0.00000
     83       9.9702      0.00000
     84      11.1034      0.00000

[...]

 spin component 2

[...]

 k-point    40 :       0.4286    0.4286    0.4286
  band No.  band energies     occupation
      1      -0.3567      1.00000
      2       0.2113      1.00000
      3       1.4103      1.00000
      4       1.6659      1.00000
      5       1.9886      1.00000
      6       2.1276      1.00000
      7       2.2425      1.00000
      8       2.6130      1.00000
      9       3.7775      1.00000
     10       3.7796      1.00000
     11       3.8288      1.00000
     12       3.9732      1.00000
     13       4.0339      1.00000
     14       4.1018      1.00000
     15       4.1166      1.00000
     16       4.1514      1.00000
     17       4.1871      1.00000
     18       4.2264      1.00000
     19       4.2518      1.00000
     20       4.3069      1.00000
     21       4.3233      1.00000
     22       4.4098      1.00000
     23       4.4532      1.00000
     24       4.5980      1.00000
     25       4.6665      1.00000
     26       4.7078      1.00000
     27       4.7716      1.00000
     28       4.9558      1.00000
     29       4.9764      1.00000
     30       5.0067      1.00000
     31       5.0138      1.00000
     32       5.0855      1.00000
     33       5.1529      1.00000
     34       5.1823      1.00000
     35       5.2478      1.00000
     36       5.3026      1.00000
     37       5.3273      1.00000
     38       5.3584      1.00000
     39       5.3954      1.00000
     40       5.4849      1.00000
     41       5.5667      1.00000
     42       5.5855      1.00000
     43       5.6309      1.00000
     44       5.6590      1.00000
     45       5.7906      1.00000
     46       5.8157      1.00000
     47       5.8238      1.00000
     48       5.8336      1.00000
     49       6.0736      1.00000
     50       6.0813      1.00000
     51       6.1619      1.00000
     52       6.2300      1.00000
     53       6.2549      1.00000
     54       6.3113      1.00000
     55       6.3523      1.00000
     56       6.4668      1.00000
     57       6.4683      1.00000
     58       6.5450      1.00000
     59       6.5593      1.00000
     60       6.6305      1.00000
[...]
     70       8.4104      0.00000
     71       8.4637      0.00000
     72       8.4715      0.00000
     73       8.4798      0.00000
     74       8.5778      0.00000
     75       8.6226      0.00000
     76       8.6932      0.00000
     77       8.8873      0.00000
     78       8.8905      0.00000
     79      10.5936      0.00000
     80      11.1164      0.00000
     81      11.4058      0.00000
     82      11.7359      0.00000
     83      11.9292      0.00000
     84      12.1430      0.00000

 soft charge-density along one line, spin component           1
         0         1         2         3         4         5         6         7         8         9
 total charge-density along one line

 soft charge-density along one line, spin component           2
         0         1         2         3         4         5         6         7         8         9
 total charge-density along one line

------------------------ aborting loop because EDIFF is reached ----------------------------------------

 total charge

# of ion       s       p       d       tot
    1        0.478   0.421   8.385   9.284
    2        0.478   0.421   8.385   9.284
    3        0.476   0.425   8.372   9.273
    4        0.476   0.425   8.372   9.273
    5        0.476   0.425   8.372   9.273
    6        0.476   0.425   8.372   9.273
    7        0.478   0.421   8.385   9.284
    8        0.478   0.421   8.385   9.284
    9        0.322   0.305   4.947   5.575
   10        0.322   0.305   4.947   5.575
   11        0.328   0.316   4.921   5.566
   12        0.328   0.316   4.921   5.566
   13        0.360   0.371   4.963   5.694
   14        0.360   0.371   4.963   5.695
   15        1.233   1.645   0.279   3.157
   16        1.233   1.645   0.279   3.157
tot          8.303   8.657  97.254 114.213

 magnetization (x)

[...]

  FORCE on cell =-STRESS in cart. coord.  units (eV):
  Direction    XX          YY          ZZ          XY          YZ          ZX
  Alpha Z   529.71655   529.71655   529.71655
  Ewald   -2781.03333 -3187.95738 -3187.95738     0.00000    -0.00000     0.00000
  Hartree  1278.19006   892.27481   892.27481    -0.00000    -0.00000    -0.00000
  E(xc)    -669.61395  -670.35210  -670.35210     0.00000    -0.00000    -0.00000
  Local    -848.54801   -60.25234   -60.25234    -0.00000     0.00000     0.00000
  n-local  -149.57001  -149.00522  -147.22734     0.29063    -0.12861    -0.59335
  augment  1578.48485  1579.20387  1579.20387     0.00000    -0.00000     0.00000
  Kinetic  1059.58983  1055.00287  1074.15201     1.62031    -0.28573     1.64811
  Fock        0.00000     0.00000     0.00000     0.00000     0.00000     0.00000
  Total      -2.78401    -0.90543    -0.90543     0.00000     0.00000     0.00000
  in kB     -20.99801    -6.82908    -6.82908     0.00000     0.00000     0.00000

 VOLUME and BASIS-vectors are now :
  energy-cutoff  :      550.00
  volume of cell :      212.42
      direct lattice vectors                 reciprocal lattice vectors
     5.966705548  0.000000000  0.000000000     0.167596673  0.000000000  0.000000000
     0.000000000  5.966705548  0.000000000     0.000000000  0.167596673  0.000000000
     0.000000000  0.000000000  5.966705548     0.000000000  0.000000000  0.167596673

  length of vectors
     5.966705548  5.966705548  5.966705548     0.167596673  0.167596673  0.167596673

 FORCES acting on ions
    electron-ion (+dipol)            ewald-force                    non-local-force                 convergence-correction
   -.429E-02 0.169E+03 0.169E+03   0.105E-03 -.167E+03 -.167E+03   -.223E-03 -.227E+01 -.227E+01   0.431E-02 -.934E-02 -.934E-02
   0.429E-02 0.169E+03 0.169E+03   -.105E-03 -.167E+03 -.167E+03   0.223E-03 -.227E+01 -.227E+01   -.431E-02 -.934E-02 -.934E-02
   -.429E-02 -.169E+03 0.169E+03   0.105E-03 0.167E+03 -.167E+03   -.223E-03 0.227E+01 -.227E+01   0.431E-02 0.934E-02 -.934E-02
   0.429E-02 -.169E+03 0.169E+03   -.105E-03 0.167E+03 -.167E+03   0.223E-03 0.227E+01 -.227E+01   -.431E-02 0.934E-02 -.934E-02
   -.429E-02 0.169E+03 -.169E+03   0.105E-03 -.167E+03 0.167E+03   -.223E-03 -.227E+01 0.227E+01   0.431E-02 -.934E-02 0.934E-02
   0.429E-02 0.169E+03 -.169E+03   -.105E-03 -.167E+03 0.167E+03   0.223E-03 -.227E+01 0.227E+01   -.431E-02 -.934E-02 0.934E-02
   -.429E-02 -.169E+03 -.169E+03   0.105E-03 0.167E+03 0.167E+03   -.223E-03 0.227E+01 0.227E+01   0.431E-02 0.934E-02 0.934E-02
   0.429E-02 -.169E+03 -.169E+03   -.105E-03 0.167E+03 0.167E+03   0.223E-03 0.227E+01 0.227E+01   -.431E-02 0.934E-02 0.934E-02
   0.208E-12 0.155E-11 0.125E-11   0.119E-12 -.187E-13 -.604E-13   0.000E+00 0.000E+00 0.000E+00   -.438E-13 -.661E-13 0.536E-13
   -.256E-13 0.255E-12 -.666E-13   0.125E-12 0.168E-13 -.358E-14   0.000E+00 0.000E+00 0.000E+00   0.346E-13 -.641E-13 0.511E-13
   -.295E-13 -.801E-13 0.232E-12   0.867E-13 0.859E-13 0.584E-13   0.000E+00 0.000E+00 0.000E+00   0.421E-13 0.821E-13 -.575E-13
   0.203E-12 -.804E-13 0.270E-11   0.113E-12 0.574E-13 0.158E-13   0.000E+00 0.000E+00 0.000E+00   -.461E-13 0.874E-13 -.863E-13
   0.191E-12 0.410E-12 0.124E-11   0.179E-13 0.407E-13 -.114E-13   0.000E+00 0.000E+00 0.000E+00   -.173E-13 -.864E-13 -.690E-13
   -.389E-13 0.246E-12 0.216E-12   -.473E-13 -.102E-12 -.114E-13   0.000E+00 0.000E+00 0.000E+00   0.147E-14 -.752E-13 -.493E-13
   0.165E-13 -.375E-13 -.151E-13   -.223E-13 -.667E-15 -.921E-15   0.000E+00 0.000E+00 0.000E+00   0.248E-13 0.213E-13 0.204E-13
   -.347E-13 0.867E-14 0.547E-12   -.156E-13 0.171E-13 0.264E-14   0.000E+00 0.000E+00 0.000E+00   -.251E-13 0.215E-13 0.236E-13
   0.985E-11 0.486E-11 0.822E-11   -.708E-15 0.117E-13 -.109E-13   -.139E-16 0.444E-15 -.888E-15   0.690E-13 0.753E-13 -.542E-12

 POSITION                                       TOTAL-FORCE (eV/Angst)
      1.49168      1.59953      1.59953        -0.000100      0.004139      0.004139
      4.47503      1.59953      1.59953         0.000100      0.004139      0.004139
      1.49168      4.36718      1.59953        -0.000100     -0.004139      0.004139
      4.47503      4.36718      1.59953         0.000100     -0.004139      0.004139
      1.49168      1.59953      4.36718        -0.000100      0.004139     -0.004139
      4.47503      1.59953      4.36718         0.000100      0.004139     -0.004139
      1.49168      4.36718      4.36718        -0.000100     -0.004139     -0.004139
      4.47503      4.36718      4.36718         0.000100     -0.004139     -0.004139
      2.98335      2.98335      0.00000         0.000000      0.000000      0.000000
      0.00000      2.98335      0.00000         0.000000      0.000000      0.000000
      0.00000      0.00000      2.98335         0.000000      0.000000      0.000000
      2.98335      0.00000      2.98335         0.000000      0.000000      0.000000
      2.98335      2.98335      2.98335         0.000000      0.000000      0.000000
      0.00000      2.98335      2.98335         0.000000      0.000000      0.000000
      0.00000      0.00000      0.00000         0.000000      0.000000      0.000000
      2.98335      0.00000      0.00000         0.000000      0.000000      0.000000
    total drift:                                0.000000      0.000000      0.000000

  FREE ENERGIE OF THE ION-ELECTRON SYSTEM (eV)
  free  energy   TOTEN  =      -103.24574385 eV

  energy  without entropy=     -103.24380330  energy(sigma->0) =     -103.24477357

 reached required accuracy - stopping structural energy minimisation

 total charge

[...]

 magnetization (x)

# of ion       s       p       d       tot
    1       -0.002  -0.001  -0.005  -0.008
    2        0.002   0.001   0.005   0.009
    3       -0.001  -0.000   0.003   0.001
    4        0.001   0.000  -0.003  -0.001
    5        0.001   0.000  -0.003  -0.001
    6       -0.001  -0.000   0.003   0.001
    7        0.002   0.001   0.005   0.009
    8       -0.002  -0.001  -0.005  -0.008
    9        0.034   0.024   3.530   3.588
   10       -0.034  -0.024  -3.530  -3.588
   11       -0.037  -0.021  -3.572  -3.630
   12        0.037   0.021   3.572   3.630
   13        0.022   0.029   3.234   3.285
   14       -0.022  -0.029  -3.235  -3.287
   15        0.006   0.100  -0.007   0.100
   16       -0.006  -0.100   0.007  -0.100
tot          0.000   0.000   0.001   0.001