 vasp.5.4.4.18Apr17-6-g9f103f2a35 (build May 21 2018 20:56:50) complex
 executed on             LinuxGNU date 2021.10.15  15:50:17

 INCAR:
 POTCAR:    PAW_PBE Ni 02Aug2007
 POTCAR:    PAW_PBE Mn 06Sep2000
 POTCAR:    PAW_PBE In 08Apr2002

 POTCAR:    PAW_PBE Ni 02Aug2007
   VRHFIN =Ni:

   TITEL  = PAW_PBE Ni 02Aug2007
   POMASS =   58.690; ZVAL   =   10.000    mass and valenz
   ENMAX  =  269.532; ENMIN  =  202.149 eV

 POTCAR:    PAW_PBE Mn 06Sep2000
   VRHFIN =Mn: d6 s1

   TITEL  = PAW_PBE Mn 06Sep2000
   POMASS =   54.938; ZVAL   =    7.000    mass and valenz
   ENMAX  =  269.864; ENMIN  =  202.398 eV

 POTCAR:    PAW_PBE In 08Apr2002
   VRHFIN =In: s2p1

   TITEL  = PAW_PBE In 08Apr2002
   POMASS =  114.820; ZVAL   =    3.000    mass and valenz
   ENMAX  =   95.934; ENMIN  =   71.951 eV

 Optimization of the real space projectors (new method)

 maximal supplied QI-value         = 16.25
 optimisation between [QCUT,QGAM] = [ 11.86, 23.89] = [ 39.41,159.82] Ry
 Optimized for a Real-space Cutoff    1.33 Angstroem

   l    n(q)    QCUT    max X(q) W(low)/X(q) W(high)/X(q)  e(spline)
   2      9    11.864    60.317    0.21E-03    0.51E-03    0.25E-06
   2      9    11.864    55.921    0.21E-03    0.51E-03    0.26E-06
   0      9    11.864    51.690    0.22E-03    0.30E-04    0.17E-06
   0      9    11.864    30.015    0.20E-03    0.28E-04    0.15E-06
   1      9    11.864    18.849    0.76E-04    0.33E-03    0.17E-06
   1      9    11.864    14.624    0.60E-04    0.28E-03    0.15E-06
 Optimization of the real space projectors (new method)

[...]

   l    n(q)    QCUT    max X(q) W(low)/X(q) W(high)/X(q)  e(spline)
   2      9    11.864   110.144    0.49E-03    0.50E-03    0.21E-06
   2      9    11.864   103.200    0.49E-03    0.51E-03    0.22E-06
   0     10    11.864    68.437    0.12E-03    0.41E-04    0.21E-06
   0     10    11.864    33.971    0.11E-03    0.36E-04    0.19E-06
   1      9    11.864    17.065    0.24E-03    0.26E-03    0.93E-07
   1      9    11.864    12.540    0.19E-03    0.20E-03    0.80E-07
 Optimization of the real space projectors (new method)

 maximal supplied QI-value         = 12.09
 optimisation between [QCUT,QGAM] = [ 11.97, 23.95] = [ 40.14,160.58] Ry
 Optimized for a Real-space Cutoff    1.63 Angstroem

   l    n(q)    QCUT    max X(q) W(low)/X(q) W(high)/X(q)  e(spline)
   0     12    11.973   106.980    0.33E-03    0.16E-03    0.25E-05
   0     12    11.973    81.086    0.37E-03    0.18E-03    0.28E-05
   1     11    11.973    53.097    0.22E-03    0.42E-03    0.40E-05
   1     11    11.973    32.621    0.20E-03    0.40E-03    0.37E-05
   2     11    11.973     8.820    0.30E-03    0.17E-03    0.41E-06
  PAW_PBE Ni 02Aug2007                  :
  PAW_PBE Mn 06Sep2000                  :
  PAW_PBE In 08Apr2002                  :

 POSCAR: Ni2MnIn
  positions in direct lattice
  velocities in cartesian coordinates
 exchange correlation table for  LEXCH =        8
   RHO(1)=    0.500       N(1)  =     2000
   RHO(2)=  100.500       N(2)  =     4000

 ion  position               nearest neighbor table
   1  0.250  0.250  0.250-   9 2.58  10 2.58  11 2.58  12 2.58  13 2.58  14 2.58  15 2.58  16 2.58
                             5 2.97   2 2.97   3 2.97   5 2.97   3 2.97   2 2.97
   2  0.750  0.250  0.250-   9 2.58  10 2.58  11 2.58  12 2.58  13 2.58  14 2.58  15 2.58  16 2.58
                             6 2.97   1 2.97   4 2.97   6 2.97   4 2.97   1 2.97
   3  0.250  0.750  0.250-   9 2.58  10 2.58  11 2.58  12 2.58  13 2.58  14 2.58  15 2.58  16 2.58
                             7 2.97   1 2.97   4 2.97   7 2.97   1 2.97   4 2.97
   4  0.750  0.750  0.250-   9 2.58  10 2.58  11 2.58  12 2.58  13 2.58  14 2.58  15 2.58  16 2.58
                             8 2.97   2 2.97   3 2.97   8 2.97   2 2.97   3 2.97
   5  0.250  0.250  0.750-   9 2.58  10 2.58  11 2.58  12 2.58  13 2.58  14 2.58  15 2.58  16 2.58
                             7 2.97   1 2.97   6 2.97   1 2.97   7 2.97   6 2.97
   6  0.750  0.250  0.750-   9 2.58  10 2.58  11 2.58  12 2.58  13 2.58  14 2.58  15 2.58  16 2.58
                             8 2.97   2 2.97   5 2.97   2 2.97   8 2.97   5 2.97
   7  0.250  0.750  0.750-   9 2.58  10 2.58  11 2.58  12 2.58  13 2.58  14 2.58  15 2.58  16 2.58
                             8 2.97   3 2.97   5 2.97   3 2.97   5 2.97   8 2.97
   8  0.750  0.750  0.750-   9 2.58  10 2.58  11 2.58  12 2.58  13 2.58  14 2.58  15 2.58  16 2.58
                             7 2.97   4 2.97   6 2.97   4 2.97   6 2.97   7 2.97
   9  0.500  0.000  0.000-   1 2.58   2 2.58   3 2.58   4 2.58   5 2.58   6 2.58   7 2.58   8 2.58
                            10 2.97  13 2.97  15 2.97  13 2.97  10 2.97  15 2.97
  10  0.500  0.500  0.000-   1 2.58   2 2.58   3 2.58   4 2.58   5 2.58   6 2.58   7 2.58   8 2.58
                             9 2.97  11 2.97  16 2.97  16 2.97   9 2.97  11 2.97
  11  0.000  0.500  0.000-   1 2.58   2 2.58   3 2.58   4 2.58   5 2.58   6 2.58   7 2.58   8 2.58
                            10 2.97  14 2.97  15 2.97  14 2.97  15 2.97  10 2.97
  12  0.000  0.000  0.500-   1 2.58   2 2.58   3 2.58   4 2.58   5 2.58   6 2.58   7 2.58   8 2.58
                            13 2.97  14 2.97  15 2.97  15 2.97  14 2.97  13 2.97
  13  0.500  0.000  0.500-   1 2.58   2 2.58   3 2.58   4 2.58   5 2.58   6 2.58   7 2.58   8 2.58
                             9 2.97  12 2.97  16 2.97   9 2.97  16 2.97  12 2.97
  14  0.000  0.500  0.500-   1 2.58   2 2.58   3 2.58   4 2.58   5 2.58   6 2.58   7 2.58   8 2.58
                            11 2.97  12 2.97  16 2.97  11 2.97  12 2.97  16 2.97
  15  0.000  0.000  0.000-   1 2.58   2 2.58   3 2.58   4 2.58   5 2.58   6 2.58   7 2.58   8 2.58
                             9 2.97  11 2.97  12 2.97  12 2.97  11 2.97   9 2.97
  16  0.500  0.500  0.500-   1 2.58   2 2.58   3 2.58   4 2.58   5 2.58   6 2.58   7 2.58   8 2.58
                            10 2.97  13 2.97  14 2.97  10 2.97  13 2.97  14 2.97

  LATTYP: Found a simple cubic cell.
 ALAT       =     5.9495064731

  Lattice vectors:

 A1 = (   5.9495064731,   0.0000000000,   0.0000000000)
 A2 = (   0.0000000000,   5.9495064731,   0.0000000000)
 A3 = (   0.0000000000,   0.0000000000,   5.9495064731)

Analysis of symmetry for initial positions (statically):
 Subroutine PRICEL returns following result:

  LATTYP: Found a body centered cubic cell.
 ALAT       =     5.9495064731

[...]

   2 primitive cells build up your supercell.

 Routine SETGRP: Setting up the symmetry group for a
 simple cubic supercell.

 Subroutine GETGRP returns: Found 48 space group operations
 (whereof 48 operations were pure point group operations)
 out of a pool of 48 trial point group operations.

The static configuration has the point symmetry O_h .

Analysis of symmetry for dynamics (positions and initial velocities):
 Subroutine PRICEL returns following result:

  LATTYP: Found a body centered cubic cell.
 ALAT       =     5.9495064731

  Lattice vectors:

 A1 = (   2.9747532366,   2.9747532366,   2.9747532366)
 A2 = (   2.9747532366,  -2.9747532366,  -2.9747532366)
 A3 = (  -2.9747532366,   2.9747532366,  -2.9747532366)

   2 primitive cells build up your supercell.

[...]

The dynamic configuration has the point symmetry O_h .

Analysis of structural, dynamic, and magnetic symmetry:
 Subroutine PRICEL returns:
 Original cell was already a primitive cell.

 Routine SETGRP: Setting up the symmetry group for a
 simple cubic supercell.

 Subroutine GETGRP returns: Found 48 space group operations
 (whereof 48 operations were pure point group operations)
 out of a pool of 48 trial point group operations.

The magnetic configuration has the point symmetry O_h .

 Subroutine INISYM returns: Found 48 space group operations
 (whereof 48 operations are pure point group operations),
 and found     1 'primitive' translations

 KPOINTS: k-points

Automatic generation of k-mesh.
Space group operators:
 irot       det(A)        alpha          n_x          n_y          n_z        tau_x        tau_y        tau_z
    1     1.000000     0.000001     1.000000     0.000000     0.000000     0.000000     0.000000     0.000000
    2    -1.000000     0.000001     1.000000     0.000000     0.000000     0.000000     0.000000     0.000000
    3     1.000000   120.000000    -0.577350    -0.577350    -0.577350     0.000000     0.000000     0.000000
    4    -1.000000   120.000000    -0.577350    -0.577350    -0.577350     0.000000     0.000000     0.000000
    5     1.000000   120.000000     0.577350     0.577350     0.577350     0.000000     0.000000     0.000000
    6    -1.000000   120.000000     0.577350     0.577350     0.577350     0.000000     0.000000     0.000000
    7     1.000000    90.000000     0.000000     0.000000    -1.000000     0.000000     0.000000     0.000000
    8    -1.000000    90.000000     0.000000     0.000000    -1.000000     0.000000     0.000000     0.000000
    9     1.000000   180.000000     0.000000     0.707107     0.707107     0.000000     0.000000     0.000000
   10    -1.000000   180.000000     0.000000     0.707107     0.707107     0.000000     0.000000     0.000000
   11     1.000000    90.000000     0.000000     1.000000     0.000000     0.000000     0.000000     0.000000
   12    -1.000000    90.000000     0.000000     1.000000     0.000000     0.000000     0.000000     0.000000
   13     1.000000   180.000000     0.000000     0.000000     1.000000     0.000000     0.000000     0.000000
   14    -1.000000   180.000000     0.000000     0.000000     1.000000     0.000000     0.000000     0.000000
   15     1.000000   120.000000    -0.577350     0.577350     0.577350     0.000000     0.000000     0.000000
   16    -1.000000   120.000000    -0.577350     0.577350     0.577350     0.000000     0.000000     0.000000
   17     1.000000   120.000000    -0.577350     0.577350    -0.577350     0.000000     0.000000     0.000000
   18    -1.000000   120.000000    -0.577350     0.577350    -0.577350     0.000000     0.000000     0.000000
   19     1.000000    90.000000     0.000000     0.000000     1.000000     0.000000     0.000000     0.000000
   20    -1.000000    90.000000     0.000000     0.000000     1.000000     0.000000     0.000000     0.000000
   21     1.000000    90.000000    -1.000000     0.000000     0.000000     0.000000     0.000000     0.000000
   22    -1.000000    90.000000    -1.000000     0.000000     0.000000     0.000000     0.000000     0.000000
   23     1.000000   180.000000     0.707107     0.000000     0.707107     0.000000     0.000000     0.000000
   24    -1.000000   180.000000     0.707107     0.000000     0.707107     0.000000     0.000000     0.000000
   25     1.000000   120.000000     0.577350    -0.577350     0.577350     0.000000     0.000000     0.000000
   26    -1.000000   120.000000     0.577350    -0.577350     0.577350     0.000000     0.000000     0.000000
   27     1.000000   120.000000    -0.577350    -0.577350     0.577350     0.000000     0.000000     0.000000
   28    -1.000000   120.000000    -0.577350    -0.577350     0.577350     0.000000     0.000000     0.000000
[...]

 First call to EWALD:  gamma=   0.298
 Maximum number of real-space cells 3x 3x 3
 Maximum number of reciprocal cells 3x 3x 3

--------------------------------------- Iteration      1(   1)  ---------------------------------------

 eigenvalue-minimisations  :  6720
 total energy-change (2. order) : 0.1067280E+04  (-0.5419980E+04)
 number of electron     128.0000000 magnetization       0.8000000
 augmentation part      128.0000000 magnetization       0.8000000

 Free energy of the ion-electron system (eV)
  alpha Z        PSCENC =       534.32381696
  Ewald energy   TEWEN  =     -9420.82663216
  -Hartree energ DENC   =     -3016.73028118
  -exchange      EXHF   =         0.00000000
  -V(xc)+E(xc)   XCENC  =        77.96317412
  PAW double counting   =     10320.96726947   -10647.99417394
  entropy T*S    EENTRO =        -0.00117327
  eigenvalues    EBANDS =      1990.11640926
  atomic energy  EATOM  =     11229.46195210
  Solvation  Ediel_sol  =         0.00000000
  free energy    TOTEN  =      1067.28036136 eV

  energy without entropy =     1067.28153463  energy(sigma->0) =     1067.28094800

[...]

 eigenvalue-minimisations  :  6720
 total energy-change (2. order) :-0.1065876E+04  (-0.1033392E+04)
 number of electron     128.0000000 magnetization       0.8000000
 augmentation part      128.0000000 magnetization       0.8000000

[...]

 Broyden mixing:
  rms(total) = 0.33975E+01    rms(broyden)= 0.33975E+01
  rms(prec ) = 0.52846E+01
  weight for this iteration     100.00

[...]

 eigenvalues of (default mixing * dielectric matrix)
  average eigenvalue GAMMA=   0.2280
  0.2280

[...]

 eigenvalue-minimisations  :  7275
 total energy-change (2. order) :-0.1076127E-05  (-0.4354017E-04)
 number of electron     127.9999540 magnetization       0.0011128
 augmentation part       67.7812076 magnetization      -0.0006522

 Broyden mixing:
  rms(total) = 0.58784E-02    rms(broyden)= 0.58782E-02
  rms(prec ) = 0.71390E-02
  weight for this iteration     100.00

 eigenvalues of (default mixing * dielectric matrix)
  average eigenvalue GAMMA=   1.0131
  2.4221  2.4221  1.1602  0.1982  0.8714  0.8714  0.3186  0.5603  0.6342  0.6724

[...]

--------------------------------------- Iteration      1(  16)  ---------------------------------------

 eigenvalue-minimisations  :  6279
 total energy-change (2. order) : 0.5048405E-06  (-0.9361033E-05)
 number of electron     127.9999540 magnetization       0.0011128
 augmentation part       67.7812076 magnetization      -0.0006522

 Free energy of the ion-electron system (eV)
  alpha Z        PSCENC =       534.32381696
  Ewald energy   TEWEN  =     -9420.82663216
  -Hartree energ DENC   =     -2812.53816023
  -exchange      EXHF   =         0.00000000
  -V(xc)+E(xc)   XCENC  =        75.91250111
  PAW double counting   =     12991.47345116   -13335.43615810
  entropy T*S    EENTRO =        -0.00148087
  eigenvalues    EBANDS =       634.71517090
  atomic energy  EATOM  =     11229.46195210
  Solvation  Ediel_sol  =         0.00000000
  free energy    TOTEN  =      -102.91553914 eV

  energy without entropy =     -102.91405827  energy(sigma->0) =     -102.91479871

 average (electrostatic) potential at core
  the test charge radii are     0.9791  1.0210  1.4837
  (the norm of the test charge is              1.0000)
       1 -83.8468       2 -83.8468       3 -83.8468       4 -83.8468       5 -83.8468
       6 -83.8468       7 -83.8468       8 -83.8468       9 -42.3715      10 -42.3713
      11 -42.3715      12 -42.3715      13 -42.3713      14 -42.3713      15 -34.5031
      16 -34.5034

 E-fermi :   7.3640     XC(G=0): -12.3193     alpha+bet :-14.2065

 spin component 1

 k-point     1 :       0.0000    0.0000    0.0000
  band No.  band energies     occupation
      1      -1.9335      1.00000
      2       0.5871      1.00000
      3       2.2863      1.00000
      4       2.2863      1.00000
      5       2.2863      1.00000
      6       2.5658      1.00000
      7       3.2234      1.00000
      8       3.2234      1.00000
      9       3.3360      1.00000
     10       3.3360      1.00000
     11       3.3360      1.00000
     12       3.5465      1.00000
     13       3.5465      1.00000
     14       4.1080      1.00000
     15       4.1080      1.00000
     16       4.4372      1.00000
     17       4.4372      1.00000
     18       4.4372      1.00000
     19       4.4385      1.00000
     20       4.4385      1.00000
     21       4.4385      1.00000
     22       4.5714      1.00000
     23       4.5714      1.00000
     24       4.5714      1.00000
     25       4.9137      1.00000
     26       5.0809      1.00000
     27       5.0809      1.00000
     28       5.0809      1.00000
     29       5.6074      1.00000
     30       5.6074      1.00000
     31       5.6074      1.00000
     32       5.6368      1.00000
     33       5.6368      1.00000
     34       5.6368      1.00000
     35       5.7260      1.00000
     36       5.7260      1.00000
     37       5.7282      1.00000
     38       5.7282      1.00000
     39       5.7282      1.00000
     40       5.9671      1.00000
     41       5.9671      1.00000
     42       5.9671      1.00000
     43       6.0799      1.00000
     44       6.0799      1.00000
     45       6.0799      1.00000
     46       6.1189      1.00000
     47       6.1868      1.00000
     48       6.2328      1.00000
     49       6.2328      1.00000
     50       6.2689      1.00000
     51       6.2689      1.00000
     52       6.2689      1.00000
     53       6.3276      1.00000
     54       6.3276      1.00000
     55       6.3276      1.00000
     56       6.4487      1.00000
     57       6.4487      1.00000
     58       6.5841      1.00000
     59       6.5841      1.00000
     60       6.5841      1.00000
[...]
     70       7.8530      0.00000
     71       7.8530      0.00000
     72       8.6272      0.00000
     73       8.6272      0.00000
     74       8.6272      0.00000
     75       8.9050      0.00000
     76       8.9050      0.00000
     77       8.9699      0.00000
     78       8.9699      0.00000
     79       8.9699      0.00000
     80       9.0287      0.00000
     81       9.2174      0.00000
     82       9.4702      0.00000
     83       9.4702      0.00000
     84      11.2481      0.00000

[...]

 spin component 2

[...]

 k-point    20 :       0.4286    0.4286    0.4286
  band No.  band energies     occupation
      1      -0.0712      1.00000
      2       0.0026      1.00000
      3       1.5570      1.00000
      4       1.6608      1.00000
      5       1.6608      1.00000
      6       2.2712      1.00000
      7       2.2712      1.00000
      8       2.5702      1.00000
      9       3.8572      1.00000
     10       3.9213      1.00000
     11       3.9213      1.00000
     12       4.0505      1.00000
     13       4.0505      1.00000
     14       4.1004      1.00000
     15       4.1414      1.00000
     16       4.3410      1.00000
     17       4.3410      1.00000
     18       4.3607      1.00000
     19       4.3885      1.00000
     20       4.3885      1.00000
     21       4.4347      1.00000
     22       4.4347      1.00000
     23       4.4452      1.00000
     24       4.7101      1.00000
     25       4.7249      1.00000
     26       4.7249      1.00000
     27       4.9754      1.00000
     28       4.9754      1.00000
     29       5.0145      1.00000
     30       5.2834      1.00000
     31       5.2834      1.00000
     32       5.3293      1.00000
     33       5.3293      1.00000
     34       5.3298      1.00000
     35       5.3378      1.00000
     36       5.3554      1.00000
     37       5.3554      1.00000
     38       5.4132      1.00000
     39       5.4132      1.00000
     40       5.4502      1.00000
     41       5.4548      1.00000
     42       5.4548      1.00000
     43       5.7144      1.00000
     44       5.7491      1.00000
     45       5.7491      1.00000
     46       5.8242      1.00000
     47       5.8242      1.00000
     48       5.8638      1.00000
     49       6.2108      1.00000
     50       6.2108      1.00000
     51       6.2201      1.00000
     52       6.2741      1.00000
     53       6.2931      1.00000
     54       6.2931      1.00000
     55       6.5132      1.00000
     56       6.5132      1.00000
     57       6.5185      1.00000
     58       6.5444      1.00000
     59       6.5444      1.00000
     60       6.7929      1.00000
[...]
     70       8.3274      0.00000
     71       8.3274      0.00000
     72       8.5555      0.00000
     73       8.8735      0.00000
     74       8.8735      0.00000
     75       8.9219      0.00000
     76       8.9298      0.00000
     77       8.9298      0.00000
     78       8.9343      0.00000
     79      11.0470      0.00000
     80      11.2787      0.00000
     81      11.2788      0.00000
     82      11.9021      0.00000
     83      11.9076      0.00000
     84      12.3842      0.00000

 soft charge-density along one line, spin component           1
         0         1         2         3         4         5         6         7         8         9
 total charge-density along one line

 soft charge-density along one line, spin component           2
         0         1         2         3         4         5         6         7         8         9
 total charge-density along one line

------------------------ aborting loop because EDIFF is reached ----------------------------------------

 total charge

# of ion       s       p       d       tot
    1        0.463   0.430   8.390   9.284
    2        0.465   0.423   8.397   9.286
    3        0.465   0.423   8.388   9.276
    4        0.465   0.427   8.376   9.268
    5        0.465   0.427   8.376   9.268
    6        0.465   0.423   8.388   9.276
    7        0.465   0.423   8.397   9.286
    8        0.463   0.430   8.390   9.284
    9        0.325   0.310   4.897   5.532
   10        0.339   0.327   4.944   5.610
   11        0.332   0.323   4.953   5.607
   12        0.339   0.327   4.944   5.610
   13        0.332   0.323   4.952   5.607
   14        0.325   0.310   4.897   5.532
   15        1.266   1.849   0.356   3.471
   16        1.266   1.849   0.356   3.471
tot          8.240   9.024  97.401 114.666

 magnetization (x)

[...]

  FORCE on cell =-STRESS in cart. coord.  units (eV):
  Direction    XX          YY          ZZ          XY          YZ          ZX
  Alpha Z   534.32382   534.32382   534.32382
  Ewald   -3140.28495 -3140.28495 -3140.28495     0.00000     0.00000     0.00000
  Hartree   937.46850   937.46850   937.46850    -0.00000    -0.00000    -0.00000
  E(xc)    -671.63289  -671.63289  -671.63289     0.00000     0.00000    -0.00000
  Local    -156.88153  -156.88153  -156.88153     0.00000     0.00000     0.00000
  n-local  -147.11911  -148.08678  -144.11217    -0.01894     0.00518     0.08510
  augment  1579.80295  1579.80295  1579.80295     0.00000     0.00000     0.00000
  Kinetic  1054.61683  1061.53200  1075.34864     0.35970     1.78347     0.73867
  Fock        0.00000     0.00000     0.00000     0.00000     0.00000     0.00000
  Total       0.18903     0.18903     0.18903    -0.00000     0.00000    -0.00000
  in kB       1.43815     1.43815     1.43815    -0.00000     0.00000    -0.00000

 VOLUME and BASIS-vectors are now :
  energy-cutoff  :      550.00
  volume of cell :      210.59
      direct lattice vectors                 reciprocal lattice vectors
     5.949506473  0.000000000  0.000000000     0.168081168  0.000000000  0.000000000
     0.000000000  5.949506473  0.000000000     0.000000000  0.168081168  0.000000000
     0.000000000  0.000000000  5.949506473     0.000000000  0.000000000  0.168081168

  length of vectors
     5.949506473  5.949506473  5.949506473     0.168081168  0.168081168  0.168081168

 FORCES acting on ions
    electron-ion (+dipol)            ewald-force                    non-local-force                 convergence-correction
   -.180E-02 -.180E-02 -.180E-02   0.178E-13 -.178E-13 -.107E-13   -.203E-03 -.203E-03 -.203E-03   0.194E-02 0.194E-02 0.194E-02
   0.180E-02 -.180E-02 -.180E-02   0.462E-13 -.391E-13 -.462E-13   0.203E-03 -.203E-03 -.203E-03   -.194E-02 0.194E-02 0.194E-02
   -.180E-02 0.180E-02 -.180E-02   0.178E-13 -.107E-13 -.391E-13   -.203E-03 0.203E-03 -.203E-03   0.194E-02 -.194E-02 0.194E-02
   0.180E-02 0.180E-02 -.180E-02   0.355E-14 0.107E-13 -.462E-13   0.203E-03 0.203E-03 -.203E-03   -.194E-02 -.194E-02 0.194E-02
   -.180E-02 -.180E-02 0.180E-02   0.320E-13 -.178E-13 -.604E-13   -.203E-03 -.203E-03 0.203E-03   0.194E-02 0.194E-02 -.194E-02
   0.180E-02 -.180E-02 0.180E-02   0.604E-13 -.391E-13 -.107E-13   0.203E-03 -.203E-03 0.203E-03   -.194E-02 0.194E-02 -.194E-02
   -.180E-02 0.180E-02 0.180E-02   0.178E-13 -.107E-13 -.462E-13   -.203E-03 0.203E-03 0.203E-03   0.194E-02 -.194E-02 -.194E-02
   0.180E-02 0.180E-02 0.180E-02   0.604E-13 0.107E-13 0.355E-14   0.203E-03 0.203E-03 0.203E-03   -.194E-02 -.194E-02 -.194E-02
   0.188E-12 -.900E-14 -.963E-12   -.150E-13 0.248E-13 0.271E-13   0.000E+00 0.000E+00 0.000E+00   0.367E-13 0.499E-13 0.645E-13
   0.186E-12 0.168E-12 0.194E-12   -.159E-13 0.485E-13 0.574E-13   0.000E+00 0.000E+00 0.000E+00   0.432E-13 -.447E-13 0.517E-13
   -.222E-13 0.197E-12 -.585E-13   -.121E-13 0.433E-13 0.556E-13   0.000E+00 0.000E+00 0.000E+00   -.195E-13 -.685E-13 0.525E-13
   -.214E-13 -.426E-13 0.191E-12   -.182E-13 0.231E-13 0.437E-13   0.000E+00 0.000E+00 0.000E+00   0.189E-13 0.224E-13 -.359E-13
   0.184E-12 -.242E-13 0.867E-12   -.978E-14 0.242E-13 0.436E-13   0.000E+00 0.000E+00 0.000E+00   0.156E-14 0.227E-13 -.655E-13
   -.157E-13 0.198E-12 0.181E-12   -.163E-13 0.456E-13 0.578E-13   0.000E+00 0.000E+00 0.000E+00   0.306E-13 -.288E-13 -.369E-13
   -.302E-13 -.124E-13 -.771E-14   -.700E-13 -.241E-13 -.475E-14   0.000E+00 0.000E+00 0.000E+00   -.543E-14 0.173E-13 0.147E-13
   -.432E-13 -.258E-12 -.643E-12   -.689E-13 -.298E-13 0.366E-14   0.000E+00 0.000E+00 0.000E+00   -.533E-14 -.109E-13 -.164E-13
   0.621E-11 0.702E-11 0.811E-11   0.296E-13 0.418E-13 0.284E-13   -.542E-19 -.271E-19 0.000E+00   0.145E-12 0.189E-12 -.268E-12

 POSITION                                       TOTAL-FORCE (eV/Angst)
      1.48738      1.48738      1.48738        -0.000064     -0.000064     -0.000064
      4.46213      1.48738      1.48738         0.000064     -0.000064     -0.000064
      1.48738      4.46213      1.48738        -0.000064      0.000064     -0.000064
      4.46213      4.46213      1.48738         0.000064      0.000064     -0.000064
      1.48738      1.48738      4.46213        -0.000064     -0.000064      0.000064
      4.46213      1.48738      4.46213         0.000064     -0.000064      0.000064
      1.48738      4.46213      4.46213        -0.000064      0.000064      0.000064
      4.46213      4.46213      4.46213         0.000064      0.000064      0.000064
      2.97475      0.00000      0.00000        -0.000000      0.000000     -0.000000
      2.97475      2.97475      0.00000        -0.000000      0.000000     -0.000000
      0.00000      2.97475      0.00000        -0.000000      0.000000     -0.000000
      0.00000      0.00000      2.97475        -0.000000      0.000000     -0.000000
      2.97475      0.00000      2.97475        -0.000000      0.000000     -0.000000
      0.00000      2.97475      2.97475        -0.000000      0.000000     -0.000000
      0.00000      0.00000      0.00000        -0.000000      0.000000     -0.000000
      2.97475      2.97475      2.97475        -0.000000      0.000000     -0.000000
    total drift:                                0.000000      0.000000      0.000000

  FREE ENERGIE OF THE ION-ELECTRON SYSTEM (eV)
  free  energy   TOTEN  =      -102.91553914 eV

  energy  without entropy=     -102.91405827  energy(sigma->0) =     -102.91479871

 reached required accuracy - stopping structural energy minimisation

 total charge

[...]

 magnetization (x)

# of ion       s       p       d       tot
    1        0.000   0.000   0.000   0.000
    2        0.000   0.000  -0.000   0.000
    3        0.000   0.000  -0.000   0.000
    4        0.000   0.000  -0.000   0.000
    5        0.000   0.000  -0.000   0.000
    6        0.000   0.000   0.000   0.000
    7        0.000   0.000  -0.000   0.000
    8        0.000   0.000   0.000   0.000
    9       -0.040  -0.024  -3.511  -3.575
   10        0.043   0.036   3.506   3.585
   11       -0.041  -0.033  -3.511  -3.585
   12       -0.043  -0.036  -3.506  -3.585
   13        0.041   0.033   3.511   3.585
   14        0.040   0.024   3.511   3.575
   15        0.015   0.076   0.002   0.093
   16       -0.015  -0.076  -0.002  -0.093
tot          0.000   0.000   0.000   0.000