 vasp.5.4.4.18Apr17-6-g9f103f2a35 (build May 21 2018 20:56:50) complex
 executed on             LinuxGNU date 2021.10.15  15:43:20

 INCAR:
 POTCAR:    PAW_PBE Ni 02Aug2007
 POTCAR:    PAW_PBE Mn 06Sep2000
 POTCAR:    PAW_PBE In 08Apr2002

 POTCAR:    PAW_PBE Ni 02Aug2007
   VRHFIN =Ni:

   TITEL  = PAW_PBE Ni 02Aug2007
   POMASS =   58.690; ZVAL   =   10.000    mass and valenz
   ENMAX  =  269.532; ENMIN  =  202.149 eV

 POTCAR:    PAW_PBE Mn 06Sep2000
   VRHFIN =Mn: d6 s1

   TITEL  = PAW_PBE Mn 06Sep2000
   POMASS =   54.938; ZVAL   =    7.000    mass and valenz
   ENMAX  =  269.864; ENMIN  =  202.398 eV

 POTCAR:    PAW_PBE In 08Apr2002
   VRHFIN =In: s2p1

   TITEL  = PAW_PBE In 08Apr2002
   POMASS =  114.820; ZVAL   =    3.000    mass and valenz
   ENMAX  =   95.934; ENMIN  =   71.951 eV

 Optimization of the real space projectors (new method)

 maximal supplied QI-value         = 16.25
 optimisation between [QCUT,QGAM] = [ 11.86, 23.89] = [ 39.41,159.82] Ry
 Optimized for a Real-space Cutoff    1.33 Angstroem

   l    n(q)    QCUT    max X(q) W(low)/X(q) W(high)/X(q)  e(spline)
   2      9    11.864    60.317    0.21E-03    0.51E-03    0.25E-06
   2      9    11.864    55.921    0.21E-03    0.51E-03    0.26E-06
   0      9    11.864    51.690    0.22E-03    0.30E-04    0.17E-06
   0      9    11.864    30.015    0.20E-03    0.28E-04    0.15E-06
   1      9    11.864    18.849    0.76E-04    0.33E-03    0.17E-06
   1      9    11.864    14.624    0.60E-04    0.28E-03    0.15E-06
 Optimization of the real space projectors (new method)

[...]

   l    n(q)    QCUT    max X(q) W(low)/X(q) W(high)/X(q)  e(spline)
   2      9    11.864   110.144    0.49E-03    0.50E-03    0.21E-06
   2      9    11.864   103.200    0.49E-03    0.51E-03    0.22E-06
   0     10    11.864    68.437    0.12E-03    0.41E-04    0.21E-06
   0     10    11.864    33.971    0.11E-03    0.36E-04    0.19E-06
   1      9    11.864    17.065    0.24E-03    0.26E-03    0.93E-07
   1      9    11.864    12.540    0.19E-03    0.20E-03    0.80E-07
 Optimization of the real space projectors (new method)

 maximal supplied QI-value         = 12.09
 optimisation between [QCUT,QGAM] = [ 11.97, 23.95] = [ 40.14,160.58] Ry
 Optimized for a Real-space Cutoff    1.63 Angstroem

   l    n(q)    QCUT    max X(q) W(low)/X(q) W(high)/X(q)  e(spline)
   0     12    11.973   106.980    0.33E-03    0.16E-03    0.25E-05
   0     12    11.973    81.086    0.37E-03    0.18E-03    0.28E-05
   1     11    11.973    53.097    0.22E-03    0.42E-03    0.40E-05
   1     11    11.973    32.621    0.20E-03    0.40E-03    0.37E-05
   2     11    11.973     8.820    0.30E-03    0.17E-03    0.41E-06
  PAW_PBE Ni 02Aug2007                  :
  PAW_PBE Mn 06Sep2000                  :
  PAW_PBE In 08Apr2002                  :

 POSCAR: Ni2MnIn
  positions in direct lattice
  velocities in cartesian coordinates
 exchange correlation table for  LEXCH =        8
   RHO(1)=    0.500       N(1)  =     2000
   RHO(2)=  100.500       N(2)  =     4000

 ion  position               nearest neighbor table
   1  0.249  0.251  0.268-  14 2.51  13 2.52  11 2.52  12 2.52  10 2.64  15 2.64  16 2.64   9 2.65
                             5 2.76   3 2.97   2 2.97   2 2.99   3 2.99
   2  0.751  0.251  0.268-  14 2.51  13 2.52  11 2.52  12 2.52  10 2.64  15 2.64  16 2.64   9 2.65
                             6 2.76   4 2.97   1 2.97   4 2.99   1 2.99
   3  0.249  0.749  0.268-  14 2.51  13 2.52  11 2.52  12 2.52  10 2.64  15 2.64  16 2.64   9 2.65
                             7 2.76   4 2.97   1 2.97   1 2.99   4 2.99
   4  0.751  0.749  0.268-  14 2.51  13 2.52  11 2.52  12 2.52  10 2.64  15 2.64  16 2.64   9 2.65
                             8 2.76   3 2.97   2 2.97   2 2.99   3 2.99
   5  0.249  0.251  0.732-  14 2.51  13 2.52  11 2.52  12 2.52  10 2.64  15 2.64  16 2.64   9 2.65
                             1 2.76   6 2.97   7 2.97   6 2.99   7 2.99
   6  0.751  0.251  0.732-  14 2.51  13 2.52  11 2.52  12 2.52  10 2.64  15 2.64  16 2.64   9 2.65
                             2 2.76   5 2.97   8 2.97   8 2.99   5 2.99
   7  0.249  0.749  0.732-  14 2.51  13 2.52  11 2.52  12 2.52  10 2.64  15 2.64  16 2.64   9 2.65
                             3 2.76   5 2.97   8 2.97   5 2.99   8 2.99
   8  0.751  0.749  0.732-  14 2.51  13 2.52  11 2.52  12 2.52  10 2.64  15 2.64  16 2.64   9 2.65
                             4 2.76   6 2.97   7 2.97   6 2.99   7 2.99
   9  0.500  0.000  0.000-   1 2.65   2 2.65   3 2.65   4 2.65   5 2.65   6 2.65   7 2.65   8 2.65
                            12 2.98  15 2.98  16 2.98  12 2.98  16 2.98  15 2.98
  10  0.000  0.500  0.000-   1 2.64   2 2.64   3 2.64   4 2.64   5 2.64   6 2.64   7 2.64   8 2.64
                            14 2.98  15 2.98  16 2.98  14 2.98  15 2.98  16 2.98
  11  0.000  0.000  0.500-   1 2.52   2 2.52   3 2.52   4 2.52   5 2.52   6 2.52   7 2.52   8 2.52
                            12 2.98  14 2.98  15 2.98  15 2.98  14 2.98  12 2.98
  12  0.500  0.000  0.500-   1 2.52   2 2.52   3 2.52   4 2.52   5 2.52   6 2.52   7 2.52   8 2.52
                             9 2.98  11 2.98  13 2.98   9 2.98  13 2.98  11 2.98
  13  0.500  0.500  0.500-   1 2.52   2 2.52   3 2.52   4 2.52   5 2.52   6 2.52   7 2.52   8 2.52
                            12 2.98  14 2.98  16 2.98  16 2.98  12 2.98  14 2.98
  14  0.000  0.500  0.500-   1 2.51   2 2.51   3 2.51   4 2.51   5 2.51   6 2.51   7 2.51   8 2.51
                            10 2.98  11 2.98  13 2.98  10 2.98  11 2.98  13 2.98
  15  0.000  0.000  0.000-   1 2.64   2 2.64   3 2.64   4 2.64   5 2.64   6 2.64   7 2.64   8 2.64
                             9 2.98  10 2.98  11 2.98  11 2.98  10 2.98   9 2.98
  16  0.500  0.500  0.000-   1 2.64   2 2.64   3 2.64   4 2.64   5 2.64   6 2.64   7 2.64   8 2.64
                             9 2.98  10 2.98  13 2.98  13 2.98   9 2.98  10 2.98

  LATTYP: Found a simple cubic cell.
 ALAT       =     5.9544831912

  Lattice vectors:

 A1 = (   5.9544831912,   0.0000000000,   0.0000000000)
 A2 = (   0.0000000000,   5.9544831912,   0.0000000000)
 A3 = (   0.0000000000,   0.0000000000,   5.9544831912)

Analysis of symmetry for initial positions (statically):
 Subroutine PRICEL returns:
 Original cell was already a primitive cell.

 Routine SETGRP: Setting up the symmetry group for a
 simple cubic supercell.

 Subroutine GETGRP returns: Found 16 space group operations
 (whereof  8 operations were pure point group operations)
 out of a pool of 48 trial point group operations.

The static configuration has the point symmetry D_2h.
 The point group associated with its full space group is D_4h.

Analysis of symmetry for dynamics (positions and initial velocities):
 Subroutine PRICEL returns:
 Original cell was already a primitive cell.

[...]

The dynamic configuration has the point symmetry D_2h.
 The point group associated with its full space group is D_4h.

Analysis of structural, dynamic, and magnetic symmetry:
 Subroutine PRICEL returns:
 Original cell was already a primitive cell.

 Routine SETGRP: Setting up the symmetry group for a
 simple cubic supercell.

 Subroutine GETGRP returns: Found 16 space group operations
 (whereof  8 operations were pure point group operations)
 out of a pool of 48 trial point group operations.

The magnetic configuration has the point symmetry D_2h.
 The point group associated with its full space group is D_4h.

 Subroutine INISYM returns: Found 16 space group operations
 (whereof  8 operations are pure point group operations),
 and found     1 'primitive' translations

 KPOINTS: k-points

Automatic generation of k-mesh.
Space group operators:
 irot       det(A)        alpha          n_x          n_y          n_z        tau_x        tau_y        tau_z
    1     1.000000     0.000000     1.000000     0.000000     0.000000     0.000000     0.000000     0.000000
    2    -1.000000     0.000000     1.000000     0.000000     0.000000     0.000000     0.000000     0.000000
    3     1.000000   180.000000     0.000000     0.000000     1.000000     0.000000     0.000000     0.000000
    4    -1.000000   180.000000     0.000000     0.000000     1.000000     0.000000     0.000000     0.000000
    5     1.000000   180.000000     1.000000     0.000000     0.000000     0.000000     0.000000     0.000000
    6    -1.000000   180.000000     1.000000     0.000000     0.000000     0.000000     0.000000     0.000000
    7     1.000000   180.000000     0.000000     1.000000     0.000000     0.000000     0.000000     0.000000
    8    -1.000000   180.000000     0.000000     1.000000     0.000000     0.000000     0.000000     0.000000
    9     1.000000    90.000000     0.000000     0.000000    -1.000000     0.500000     0.500000     0.000000
   10    -1.000000    90.000000     0.000000     0.000000    -1.000000     0.500000     0.500000     0.000000
   11     1.000000    90.000000     0.000000     0.000000     1.000000     0.500000     0.500000     0.000000
   12    -1.000000    90.000000     0.000000     0.000000     1.000000     0.500000     0.500000     0.000000
   13     1.000000   180.000000     0.707107     0.707107     0.000000     0.500000     0.500000     0.000000
   14    -1.000000   180.000000     0.707107     0.707107     0.000000     0.500000     0.500000     0.000000
   15     1.000000   180.000000     0.707107    -0.707107     0.000000     0.500000     0.500000     0.000000
   16    -1.000000   180.000000     0.707107    -0.707107     0.000000     0.500000     0.500000     0.000000

 Subroutine IBZKPT returns following result:

 Found     40 irreducible k-points:

 Following reciprocal coordinates:
            Coordinates               Weight
  0.000000  0.000000  0.000000      1.000000
  0.142857  0.000000  0.000000      4.000000
  0.285714  0.000000  0.000000      4.000000
  0.428571  0.000000  0.000000      4.000000
  0.142857  0.142857  0.000000      4.000000
  0.285714  0.142857  0.000000      8.000000
  0.428571  0.142857  0.000000      8.000000
  0.285714  0.285714  0.000000      4.000000
  0.428571  0.285714  0.000000      8.000000
  0.428571  0.428571  0.000000      4.000000
  0.000000  0.000000  0.142857      2.000000
  0.142857  0.000000  0.142857      8.000000
  0.285714  0.000000  0.142857      8.000000
  0.428571  0.000000  0.142857      8.000000
  0.142857  0.142857  0.142857      8.000000
  0.285714  0.142857  0.142857     16.000000
  0.428571  0.142857  0.142857     16.000000
  0.285714  0.285714  0.142857      8.000000
  0.428571  0.285714  0.142857     16.000000
  0.428571  0.428571  0.142857      8.000000
  0.000000  0.000000  0.285714      2.000000
  0.142857  0.000000  0.285714      8.000000
  0.285714  0.000000  0.285714      8.000000
  0.428571  0.000000  0.285714      8.000000
  0.142857  0.142857  0.285714      8.000000
  0.285714  0.142857  0.285714     16.000000
  0.428571  0.142857  0.285714     16.000000
  0.285714  0.285714  0.285714      8.000000
  0.428571  0.285714  0.285714     16.000000
  0.428571  0.428571  0.285714      8.000000
  0.000000  0.000000  0.428571      2.000000
  0.142857  0.000000  0.428571      8.000000
  0.285714  0.000000  0.428571      8.000000
[...]
  in kB     -12.55954   -12.55954     5.71490     0.00000     0.00000     0.00000

 VOLUME and BASIS-vectors are now :
  energy-cutoff  :      550.00
  volume of cell :      211.12
      direct lattice vectors                 reciprocal lattice vectors
     5.954483191  0.000000000  0.000000000     0.167940687  0.000000000  0.000000000
     0.000000000  5.954483191  0.000000000     0.000000000  0.167940687  0.000000000
     0.000000000  0.000000000  5.954483191     0.000000000  0.000000000  0.167940687

[...]

 FORCES acting on ions
    electron-ion (+dipol)            ewald-force                    non-local-force                 convergence-correction
   -.369E+01 0.369E+01 0.177E+03   0.373E+01 -.373E+01 -.175E+03   -.295E-01 0.295E-01 -.260E+01   -.239E-01 0.239E-01 -.663E-02
   0.369E+01 0.369E+01 0.177E+03   -.373E+01 -.373E+01 -.175E+03   0.295E-01 0.295E-01 -.260E+01   0.239E-01 0.239E-01 -.663E-02
   -.369E+01 -.369E+01 0.177E+03   0.373E+01 0.373E+01 -.175E+03   -.295E-01 -.295E-01 -.260E+01   -.239E-01 -.239E-01 -.663E-02
   0.369E+01 -.369E+01 0.177E+03   -.373E+01 0.373E+01 -.175E+03   0.295E-01 -.295E-01 -.260E+01   0.239E-01 -.239E-01 -.663E-02
   -.369E+01 0.369E+01 -.177E+03   0.373E+01 -.373E+01 0.175E+03   -.295E-01 0.295E-01 0.260E+01   -.239E-01 0.239E-01 0.663E-02
   0.369E+01 0.369E+01 -.177E+03   -.373E+01 -.373E+01 0.175E+03   0.295E-01 0.295E-01 0.260E+01   0.239E-01 0.239E-01 0.663E-02
   -.369E+01 -.369E+01 -.177E+03   0.373E+01 0.373E+01 0.175E+03   -.295E-01 -.295E-01 0.260E+01   -.239E-01 -.239E-01 0.663E-02
   0.369E+01 -.369E+01 -.177E+03   -.373E+01 0.373E+01 0.175E+03   0.295E-01 -.295E-01 0.260E+01   0.239E-01 -.239E-01 0.663E-02
   0.196E-12 0.374E-14 -.613E-12   0.966E-13 0.335E-13 -.456E-13   0.000E+00 0.000E+00 0.000E+00   0.341E-13 0.373E-13 0.212E-13
   -.268E-13 0.212E-12 -.322E-13   0.162E-14 -.346E-13 0.255E-13   0.000E+00 0.000E+00 0.000E+00   0.289E-13 -.518E-13 -.758E-17
   -.397E-13 -.545E-13 0.182E-12   -.214E-13 -.457E-13 -.259E-13   0.000E+00 0.000E+00 0.000E+00   -.843E-14 0.500E-13 -.105E-13
   0.185E-12 -.392E-13 0.157E-11   0.131E-12 0.410E-13 -.418E-13   0.000E+00 0.000E+00 0.000E+00   0.573E-13 0.434E-13 -.294E-13
   0.184E-12 0.202E-12 0.910E-12   -.402E-14 -.414E-13 -.684E-13   0.000E+00 0.000E+00 0.000E+00   0.163E-13 -.362E-13 -.210E-13
   -.391E-13 0.208E-12 0.174E-12   0.575E-13 0.595E-13 0.100E-12   0.000E+00 0.000E+00 0.000E+00   0.297E-13 -.453E-13 -.105E-13
   -.302E-13 -.175E-13 -.446E-14   -.142E-13 -.139E-13 -.399E-14   0.000E+00 0.000E+00 0.000E+00   -.805E-14 0.160E-13 0.325E-14
   -.259E-13 -.483E-12 0.110E-13   0.454E-14 -.164E-13 -.754E-14   0.000E+00 0.000E+00 0.000E+00   0.210E-14 -.143E-13 0.386E-14
   0.997E-11 0.894E-11 0.601E-10   -.733E-14 -.677E-13 -.672E-13   -.104E-16 0.173E-16 0.444E-15   0.309E-12 0.255E-12 -.365E-12

 POSITION                                       TOTAL-FORCE (eV/Angst)
      1.48471      1.49253      1.59862        -0.013930      0.013930      0.001750
      4.46977      1.49253      1.59862         0.013930      0.013930      0.001750
      1.48471      4.46195      1.59862        -0.013930     -0.013930      0.001750
      4.46977      4.46195      1.59862         0.013930     -0.013930      0.001750
      1.48471      1.49253      4.35586        -0.013930      0.013930     -0.001750
      4.46977      1.49253      4.35586         0.013930      0.013930     -0.001750
      1.48471      4.46195      4.35586        -0.013930     -0.013930     -0.001750
      4.46977      4.46195      4.35586         0.013930     -0.013930     -0.001750
      2.97724      0.00000      0.00000         0.000000      0.000000      0.000000
      0.00000      2.97724      0.00000         0.000000      0.000000      0.000000
      0.00000      0.00000      2.97724         0.000000      0.000000      0.000000
      2.97724      0.00000      2.97724         0.000000      0.000000      0.000000
      2.97724      2.97724      2.97724         0.000000      0.000000      0.000000
      0.00000      2.97724      2.97724         0.000000      0.000000      0.000000
      0.00000      0.00000      0.00000         0.000000      0.000000      0.000000
      2.97724      2.97724      0.00000         0.000000      0.000000      0.000000
    total drift:                                0.000000      0.000000      0.000000

  FREE ENERGIE OF THE ION-ELECTRON SYSTEM (eV)
  free  energy   TOTEN  =      -103.28837138 eV

  energy  without entropy=     -103.28655935  energy(sigma->0) =     -103.28746537

[...]

 d Force = 0.1246900E-03[ 0.984E-04, 0.151E-03]  d Energy = 0.1543236E-03-0.296E-04
 d Force =-0.1616266E+00[-0.165E+00,-0.158E+00]  d Ewald  =-0.1616265E+00-0.169E-07

 Steepest descent step on ions:
 trial-energy change:   -0.000154  1 .order   -0.000125   -0.000151   -0.000098
  (g-gl).g = 0.151E-03      g.g   = 0.151E-03  gl.gl    = 0.000E+00
 g(Force)  = 0.151E-03   g(Stress)= 0.000E+00 ortho     = 0.000E+00
 gamma     =   0.00000
 trial     =   1.00000
 opt step  =   2.87364  (harmonic =   2.87364) maximal distance =0.00193110
 next E    =  -103.288588   (d E  =  -0.00022)

[...]

 eigenvalue-minimisations  : 14040
 total energy-change (2. order) : 0.2455739E-03  (-0.4494387E-04)
 number of electron     127.9999967 magnetization      -0.3982232
 augmentation part       67.7349277 magnetization      -0.0855320

 Broyden mixing:
  rms(total) = 0.51158E-02    rms(broyden)= 0.51155E-02
  rms(prec ) = 0.58368E-02
  weight for this iteration     100.00

 eigenvalues of (default mixing * dielectric matrix)
  average eigenvalue GAMMA=   0.3863
  0.4737  0.2988

[...]

--------------------------------------- Iteration      3(   4)  ---------------------------------------

 eigenvalue-minimisations  : 11393
 total energy-change (2. order) :-0.1545786E-05  (-0.6760745E-05)
 number of electron     127.9999967 magnetization      -0.3982232
 augmentation part       67.7349277 magnetization      -0.0855320

 Free energy of the ion-electron system (eV)
  alpha Z        PSCENC =       532.98518337
  Ewald energy   TEWEN  =     -9293.23021271
  -Hartree energ DENC   =     -2935.03228522
  -exchange      EXHF   =         0.00000000
  -V(xc)+E(xc)   XCENC  =        75.53609574
  PAW double counting   =     12924.51619673   -13268.80187727
  entropy T*S    EENTRO =        -0.00176878
  eigenvalues    EBANDS =       631.27803788
  atomic energy  EATOM  =     11229.46195210
  Solvation  Ediel_sol  =         0.00000000
  free energy    TOTEN  =      -103.28867817 eV

  energy without entropy =     -103.28690939  energy(sigma->0) =     -103.28779378

 average (electrostatic) potential at core
  the test charge radii are     0.9791  1.0210  1.4837
  (the norm of the test charge is              1.0000)
       1 -83.8688       2 -83.8688       3 -83.8688       4 -83.8688       5 -83.8688
       6 -83.8688       7 -83.8688       8 -83.8688       9 -42.3791      10 -42.6411
      11 -42.3776      12 -42.5387      13 -42.3776      14 -42.2107      15 -34.5828
      16 -34.5828

 E-fermi :   7.3511     XC(G=0): -12.3081     alpha+bet :-14.1709

[...]

 spin component 2

[...]

 k-point    40 :       0.4286    0.4286    0.4286
  band No.  band energies     occupation
      1       0.0189      1.00000
      2       0.2341      1.00000
      3       1.4779      1.00000
      4       1.5447      1.00000
      5       1.7482      1.00000
      6       1.9432      1.00000
      7       2.3573      1.00000
      8       2.6770      1.00000
      9       3.6623      1.00000
     10       3.7929      1.00000
     11       3.8624      1.00000
     12       3.9072      1.00000
     13       3.9076      1.00000
     14       4.1017      1.00000
     15       4.1504      1.00000
     16       4.1933      1.00000
     17       4.2004      1.00000
     18       4.2261      1.00000
     19       4.2271      1.00000
     20       4.4412      1.00000
     21       4.4528      1.00000
     22       4.4629      1.00000
     23       4.4945      1.00000
     24       4.6200      1.00000
     25       4.6459      1.00000
     26       4.8266      1.00000
     27       4.8485      1.00000
     28       4.8826      1.00000
     29       4.9364      1.00000
     30       5.0620      1.00000
     31       5.1017      1.00000
     32       5.1168      1.00000
     33       5.1766      1.00000
     34       5.2729      1.00000
     35       5.2767      1.00000
     36       5.3504      1.00000
     37       5.3800      1.00000
     38       5.3907      1.00000
     39       5.4771      1.00000
     40       5.5255      1.00000
     41       5.5274      1.00000
     42       5.5304      1.00000
     43       5.6898      1.00000
     44       5.7773      1.00000
     45       5.8006      1.00000
     46       5.8362      1.00000
     47       5.9901      1.00000
     48       5.9927      1.00000
     49       6.0054      1.00000
     50       6.1019      1.00000
     51       6.1141      1.00000
     52       6.1703      1.00000
     53       6.2400      1.00000
     54       6.2594      1.00000
     55       6.2796      1.00000
     56       6.3757      1.00000
     57       6.4493      1.00000
     58       6.5092      1.00000
     59       6.5256      1.00000
     60       6.6033      1.00000
[...]
     70       8.5731      0.00000
     71       8.5995      0.00000
     72       8.6468      0.00000
     73       8.6489      0.00000
     74       8.7681      0.00000
     75       8.7765      0.00000
     76       8.8585      0.00000
     77       8.9618      0.00000
     78       8.9722      0.00000
     79      11.0051      0.00000
     80      11.4275      0.00000
     81      11.5171      0.00000
     82      11.7287      0.00000
     83      11.9455      0.00000
     84      11.9665      0.00000

[...]

 soft charge-density along one line, spin component           2
         0         1         2         3         4         5         6         7         8         9
 total charge-density along one line

------------------------ aborting loop because EDIFF is reached ----------------------------------------

[...]

  FORCE on cell =-STRESS in cart. coord.  units (eV):
  Direction    XX          YY          ZZ          XY          YZ          ZX
  Alpha Z   532.98518   532.98518   532.98518
  Ewald   -2976.51783 -2976.51783 -3340.22308     0.00000    -0.00000    -0.00000
  Hartree  1090.64890  1090.64890   753.94490    -0.00000    -0.00000    -0.00000
  E(xc)    -670.69053  -670.69053  -670.93815     0.00000    -0.00000     0.00000
  Local    -471.85046  -471.85046   226.98236     0.00000    -0.00000     0.00000
  n-local  -149.33303  -145.62748  -146.81377    -0.31849    -0.94993     0.26498
  augment  1578.78452  1578.78452  1580.28549    -0.00000    -0.00000    -0.00000
  Kinetic  1053.91677  1071.51615  1064.72036     1.02915     0.77712     1.35951
  Fock        0.00000     0.00000     0.00000     0.00000     0.00000     0.00000
  Total      -1.40402    -1.40402     0.94329     0.00000     0.00000     0.00000
  in kB     -10.65494   -10.65494     7.15854     0.00000     0.00000     0.00000

 VOLUME and BASIS-vectors are now :
  energy-cutoff  :      550.00
  volume of cell :      211.12
      direct lattice vectors                 reciprocal lattice vectors
     5.954483191  0.000000000  0.000000000     0.167940687  0.000000000  0.000000000
     0.000000000  5.954483191  0.000000000     0.000000000  0.167940687  0.000000000
     0.000000000  0.000000000  5.954483191     0.000000000  0.000000000  0.167940687

  length of vectors
     5.954483191  5.954483191  5.954483191     0.167940687  0.167940687  0.167940687

 FORCES acting on ions
    electron-ion (+dipol)            ewald-force                    non-local-force                 convergence-correction
   -.557E+01 0.557E+01 0.178E+03   0.557E+01 -.557E+01 -.175E+03   0.180E-01 -.180E-01 -.260E+01   -.192E-01 0.192E-01 -.613E-02
   0.557E+01 0.557E+01 0.178E+03   -.557E+01 -.557E+01 -.175E+03   -.180E-01 -.180E-01 -.260E+01   0.192E-01 0.192E-01 -.613E-02
   -.557E+01 -.557E+01 0.178E+03   0.557E+01 0.557E+01 -.175E+03   0.180E-01 0.180E-01 -.260E+01   -.192E-01 -.192E-01 -.613E-02
   0.557E+01 -.557E+01 0.178E+03   -.557E+01 0.557E+01 -.175E+03   -.180E-01 0.180E-01 -.260E+01   0.192E-01 -.192E-01 -.613E-02
   -.557E+01 0.557E+01 -.178E+03   0.557E+01 -.557E+01 0.175E+03   0.180E-01 -.180E-01 0.260E+01   -.192E-01 0.192E-01 0.613E-02
   0.557E+01 0.557E+01 -.178E+03   -.557E+01 -.557E+01 0.175E+03   -.180E-01 -.180E-01 0.260E+01   0.192E-01 0.192E-01 0.613E-02
   -.557E+01 -.557E+01 -.178E+03   0.557E+01 0.557E+01 0.175E+03   0.180E-01 0.180E-01 0.260E+01   -.192E-01 -.192E-01 0.613E-02
   0.557E+01 -.557E+01 -.178E+03   -.557E+01 0.557E+01 0.175E+03   -.180E-01 0.180E-01 0.260E+01   0.192E-01 -.192E-01 0.613E-02
   0.236E-12 0.341E-13 -.650E-12   -.171E-13 0.122E-13 0.184E-13   0.000E+00 0.000E+00 0.000E+00   0.803E-12 -.126E-12 -.319E-12
   -.614E-13 0.211E-12 -.729E-13   -.836E-13 -.559E-13 0.255E-13   0.000E+00 0.000E+00 0.000E+00   0.134E-11 0.235E-12 -.120E-13
   -.880E-13 -.170E-13 0.191E-12   0.107E-12 0.254E-13 0.594E-13   0.000E+00 0.000E+00 0.000E+00   -.111E-11 0.210E-12 -.210E-12
   0.231E-12 -.411E-14 0.158E-11   -.677E-13 -.727E-13 0.849E-15   0.000E+00 0.000E+00 0.000E+00   0.112E-11 0.198E-12 -.228E-12
   0.227E-12 0.206E-12 0.936E-12   0.102E-13 -.130E-13 0.453E-13   0.000E+00 0.000E+00 0.000E+00   -.789E-12 -.119E-12 -.532E-12
   -.848E-13 0.206E-12 0.187E-12   0.291E-13 -.400E-13 -.132E-13   0.000E+00 0.000E+00 0.000E+00   0.833E-12 -.118E-12 -.524E-12
   -.522E-13 -.346E-14 -.179E-13   0.530E-16 -.683E-14 0.173E-13   0.000E+00 0.000E+00 0.000E+00   -.174E-12 -.455E-13 -.654E-13
   -.113E-13 -.485E-12 -.781E-14   -.274E-13 -.128E-13 0.311E-14   0.000E+00 0.000E+00 0.000E+00   -.257E-12 0.618E-13 0.309E-13
   0.870E-11 0.780E-11 -.330E-10   0.211E-13 -.357E-13 0.185E-12   0.347E-17 0.139E-16 0.133E-14   0.158E-11 -.129E-11 0.149E-10

 POSITION                                       TOTAL-FORCE (eV/Angst)
      1.48278      1.49446      1.59886        -0.002519      0.002519     -0.001315
      4.47170      1.49446      1.59886         0.002519      0.002519     -0.001315
      1.48278      4.46002      1.59886        -0.002519     -0.002519     -0.001315
      4.47170      4.46002      1.59886         0.002519     -0.002519     -0.001315
      1.48278      1.49446      4.35562        -0.002519      0.002519      0.001315
      4.47170      1.49446      4.35562         0.002519      0.002519      0.001315
      1.48278      4.46002      4.35562        -0.002519     -0.002519      0.001315
      4.47170      4.46002      4.35562         0.002519     -0.002519      0.001315
      2.97724      0.00000      0.00000        -0.000000      0.000000      0.000000
      0.00000      2.97724      0.00000        -0.000000      0.000000      0.000000
      0.00000      0.00000      2.97724        -0.000000      0.000000      0.000000
      2.97724      0.00000      2.97724        -0.000000      0.000000      0.000000
      2.97724      2.97724      2.97724        -0.000000      0.000000      0.000000
      0.00000      2.97724      2.97724        -0.000000      0.000000      0.000000
      0.00000      0.00000      0.00000        -0.000000      0.000000      0.000000
      2.97724      2.97724      0.00000        -0.000000      0.000000      0.000000
    total drift:                                0.000000      0.000000     -0.000000

  FREE ENERGIE OF THE ION-ELECTRON SYSTEM (eV)
  free  energy   TOTEN  =      -103.28867817 eV

  energy  without entropy=     -103.28690939  energy(sigma->0) =     -103.28779378

 d Force = 0.1167510E-03[ 0.491E-04, 0.184E-03]  d Energy = 0.1524651E-03-0.357E-04
 d Force =-0.3215323E+00[-0.334E+00,-0.309E+00]  d Ewald  =-0.3215322E+00-0.119E-06

 reached required accuracy - stopping structural energy minimisation

 total charge

[...]

 magnetization (x)

# of ion       s       p       d       tot
    1       -0.004  -0.004   0.010   0.002
    2       -0.003  -0.001   0.029   0.025
    3       -0.003   0.003   0.036   0.036
    4       -0.003  -0.003   0.029   0.023
    5       -0.003  -0.003   0.029   0.023
    6       -0.003   0.003   0.036   0.036
    7       -0.003  -0.001   0.029   0.025
    8       -0.004  -0.004   0.010   0.002
    9       -0.033  -0.018  -3.629  -3.680
   10       -0.034  -0.053  -3.540  -3.627
   11        0.023   0.036   3.362   3.421
   12       -0.029  -0.054  -3.430  -3.512
   13        0.027   0.024   3.353   3.405
   14        0.029   0.013   3.454   3.496
   15       -0.009   0.055   0.003   0.049
   16       -0.002   0.063  -0.006   0.055
tot         -0.057   0.058  -0.226  -0.225