 vasp.5.4.4.18Apr17-6-g9f103f2a35 (build May 21 2018 20:56:50) complex
 executed on             LinuxGNU date 2021.10.15  15:49:33

 INCAR:
 POTCAR:    PAW_PBE Ni 02Aug2007
 POTCAR:    PAW_PBE Mn 06Sep2000
 POTCAR:    PAW_PBE In 08Apr2002

 POTCAR:    PAW_PBE Ni 02Aug2007
   VRHFIN =Ni:

   TITEL  = PAW_PBE Ni 02Aug2007
   POMASS =   58.690; ZVAL   =   10.000    mass and valenz
   ENMAX  =  269.532; ENMIN  =  202.149 eV

 POTCAR:    PAW_PBE Mn 06Sep2000
   VRHFIN =Mn: d6 s1

   TITEL  = PAW_PBE Mn 06Sep2000
   POMASS =   54.938; ZVAL   =    7.000    mass and valenz
   ENMAX  =  269.864; ENMIN  =  202.398 eV

 POTCAR:    PAW_PBE In 08Apr2002
   VRHFIN =In: s2p1

   TITEL  = PAW_PBE In 08Apr2002
   POMASS =  114.820; ZVAL   =    3.000    mass and valenz
   ENMAX  =   95.934; ENMIN  =   71.951 eV

 Optimization of the real space projectors (new method)

 maximal supplied QI-value         = 16.25
 optimisation between [QCUT,QGAM] = [ 11.86, 23.89] = [ 39.41,159.82] Ry
 Optimized for a Real-space Cutoff    1.33 Angstroem

   l    n(q)    QCUT    max X(q) W(low)/X(q) W(high)/X(q)  e(spline)
   2      9    11.864    60.317    0.21E-03    0.51E-03    0.25E-06
   2      9    11.864    55.921    0.21E-03    0.51E-03    0.26E-06
   0      9    11.864    51.690    0.22E-03    0.30E-04    0.17E-06
   0      9    11.864    30.015    0.20E-03    0.28E-04    0.15E-06
   1      9    11.864    18.849    0.76E-04    0.33E-03    0.17E-06
   1      9    11.864    14.624    0.60E-04    0.28E-03    0.15E-06
 Optimization of the real space projectors (new method)

[...]

   l    n(q)    QCUT    max X(q) W(low)/X(q) W(high)/X(q)  e(spline)
   2      9    11.864   110.144    0.49E-03    0.50E-03    0.21E-06
   2      9    11.864   103.200    0.49E-03    0.51E-03    0.22E-06
   0     10    11.864    68.437    0.12E-03    0.41E-04    0.21E-06
   0     10    11.864    33.971    0.11E-03    0.36E-04    0.19E-06
   1      9    11.864    17.065    0.24E-03    0.26E-03    0.93E-07
   1      9    11.864    12.540    0.19E-03    0.20E-03    0.80E-07
 Optimization of the real space projectors (new method)

 maximal supplied QI-value         = 12.09
 optimisation between [QCUT,QGAM] = [ 11.97, 23.95] = [ 40.14,160.58] Ry
 Optimized for a Real-space Cutoff    1.63 Angstroem

   l    n(q)    QCUT    max X(q) W(low)/X(q) W(high)/X(q)  e(spline)
   0     12    11.973   106.980    0.33E-03    0.16E-03    0.25E-05
   0     12    11.973    81.086    0.37E-03    0.18E-03    0.28E-05
   1     11    11.973    53.097    0.22E-03    0.42E-03    0.40E-05
   1     11    11.973    32.621    0.20E-03    0.40E-03    0.37E-05
   2     11    11.973     8.820    0.30E-03    0.17E-03    0.41E-06
  PAW_PBE Ni 02Aug2007                  :
  PAW_PBE Mn 06Sep2000                  :
  PAW_PBE In 08Apr2002                  :

 POSCAR: Ni2MnIn
  positions in direct lattice
  velocities in cartesian coordinates
 exchange correlation table for  LEXCH =        8
   RHO(1)=    0.500       N(1)  =     2000
   RHO(2)=  100.500       N(2)  =     4000

 ion  position               nearest neighbor table
   1  0.250  0.250  0.250-   9 2.58  10 2.58  11 2.58  12 2.58  13 2.58  14 2.58  15 2.58  16 2.58
                             5 2.98   2 2.98   3 2.98   5 2.98   3 2.98   2 2.98
   2  0.750  0.250  0.250-   9 2.58  10 2.58  11 2.58  12 2.58  13 2.58  14 2.58  15 2.58  16 2.58
                             6 2.98   1 2.98   4 2.98   6 2.98   4 2.98   1 2.98
   3  0.250  0.750  0.250-   9 2.58  10 2.58  11 2.58  12 2.58  13 2.58  14 2.58  15 2.58  16 2.58
                             7 2.98   1 2.98   4 2.98   7 2.98   1 2.98   4 2.98
   4  0.750  0.750  0.250-   9 2.58  10 2.58  11 2.58  12 2.58  13 2.58  14 2.58  15 2.58  16 2.58
                             8 2.98   2 2.98   3 2.98   8 2.98   2 2.98   3 2.98
   5  0.250  0.250  0.750-   9 2.58  10 2.58  11 2.58  12 2.58  13 2.58  14 2.58  15 2.58  16 2.58
                             7 2.98   1 2.98   6 2.98   1 2.98   7 2.98   6 2.98
   6  0.750  0.250  0.750-   9 2.58  10 2.58  11 2.58  12 2.58  13 2.58  14 2.58  15 2.58  16 2.58
                             8 2.98   2 2.98   5 2.98   2 2.98   8 2.98   5 2.98
   7  0.250  0.750  0.750-   9 2.58  10 2.58  11 2.58  12 2.58  13 2.58  14 2.58  15 2.58  16 2.58
                             8 2.98   3 2.98   5 2.98   3 2.98   5 2.98   8 2.98
   8  0.750  0.750  0.750-   9 2.58  10 2.58  11 2.58  12 2.58  13 2.58  14 2.58  15 2.58  16 2.58
                             7 2.98   4 2.98   6 2.98   4 2.98   6 2.98   7 2.98
   9  0.500  0.000  0.000-   1 2.58   2 2.58   3 2.58   4 2.58   5 2.58   6 2.58   7 2.58   8 2.58
                            10 2.98  13 2.98  15 2.98  13 2.98  10 2.98  15 2.98
  10  0.500  0.500  0.000-   1 2.58   2 2.58   3 2.58   4 2.58   5 2.58   6 2.58   7 2.58   8 2.58
                             9 2.98  11 2.98  16 2.98  16 2.98   9 2.98  11 2.98
  11  0.000  0.500  0.000-   1 2.58   2 2.58   3 2.58   4 2.58   5 2.58   6 2.58   7 2.58   8 2.58
                            10 2.98  14 2.98  15 2.98  14 2.98  15 2.98  10 2.98
  12  0.000  0.000  0.500-   1 2.58   2 2.58   3 2.58   4 2.58   5 2.58   6 2.58   7 2.58   8 2.58
                            13 2.98  14 2.98  15 2.98  15 2.98  14 2.98  13 2.98
  13  0.500  0.000  0.500-   1 2.58   2 2.58   3 2.58   4 2.58   5 2.58   6 2.58   7 2.58   8 2.58
                             9 2.98  12 2.98  16 2.98   9 2.98  16 2.98  12 2.98
  14  0.000  0.500  0.500-   1 2.58   2 2.58   3 2.58   4 2.58   5 2.58   6 2.58   7 2.58   8 2.58
                            11 2.98  12 2.98  16 2.98  11 2.98  12 2.98  16 2.98
  15  0.000  0.000  0.000-   1 2.58   2 2.58   3 2.58   4 2.58   5 2.58   6 2.58   7 2.58   8 2.58
                             9 2.98  11 2.98  12 2.98  12 2.98  11 2.98   9 2.98
  16  0.500  0.500  0.500-   1 2.58   2 2.58   3 2.58   4 2.58   5 2.58   6 2.58   7 2.58   8 2.58
                            10 2.98  13 2.98  14 2.98  10 2.98  13 2.98  14 2.98

  LATTYP: Found a simple cubic cell.
 ALAT       =     5.9666021750

  Lattice vectors:

 A1 = (   5.9666021750,   0.0000000000,   0.0000000000)
 A2 = (   0.0000000000,   5.9666021750,   0.0000000000)
 A3 = (   0.0000000000,   0.0000000000,   5.9666021750)

Analysis of symmetry for initial positions (statically):
 Subroutine PRICEL returns following result:

  LATTYP: Found a body centered cubic cell.
 ALAT       =     5.9666021750

[...]

   2 primitive cells build up your supercell.

 Routine SETGRP: Setting up the symmetry group for a
 simple cubic supercell.

 Subroutine GETGRP returns: Found 48 space group operations
 (whereof 48 operations were pure point group operations)
 out of a pool of 48 trial point group operations.

The static configuration has the point symmetry O_h .

Analysis of symmetry for dynamics (positions and initial velocities):
 Subroutine PRICEL returns following result:

  LATTYP: Found a body centered cubic cell.
 ALAT       =     5.9666021750

  Lattice vectors:

 A1 = (   2.9833010875,   2.9833010875,   2.9833010875)
 A2 = (   2.9833010875,  -2.9833010875,  -2.9833010875)
 A3 = (  -2.9833010875,   2.9833010875,  -2.9833010875)

   2 primitive cells build up your supercell.

[...]

The dynamic configuration has the point symmetry O_h .

Analysis of structural, dynamic, and magnetic symmetry:
 Subroutine PRICEL returns:
 Original cell was already a primitive cell.

 Routine SETGRP: Setting up the symmetry group for a
 simple cubic supercell.

 Subroutine GETGRP returns: Found 16 space group operations
 (whereof  8 operations were pure point group operations)
 out of a pool of 48 trial point group operations.

The magnetic configuration has the point symmetry D_2h.
 The point group associated with its full space group is D_4h.

 Subroutine INISYM returns: Found 16 space group operations
 (whereof  8 operations are pure point group operations),
 and found     1 'primitive' translations

 KPOINTS: k-points

Automatic generation of k-mesh.
Space group operators:
 irot       det(A)        alpha          n_x          n_y          n_z        tau_x        tau_y        tau_z
    1     1.000000     0.000000     1.000000     0.000000     0.000000     0.000000     0.000000     0.000000
    2    -1.000000     0.000000     1.000000     0.000000     0.000000     0.000000     0.000000     0.000000
    3     1.000000   180.000000     0.000000     0.000000     1.000000     0.000000     0.000000     0.000000
    4    -1.000000   180.000000     0.000000     0.000000     1.000000     0.000000     0.000000     0.000000
    5     1.000000   180.000000     1.000000     0.000000     0.000000     0.000000     0.000000     0.000000
    6    -1.000000   180.000000     1.000000     0.000000     0.000000     0.000000     0.000000     0.000000
    7     1.000000   180.000000     0.000000     1.000000     0.000000     0.000000     0.000000     0.000000
    8    -1.000000   180.000000     0.000000     1.000000     0.000000     0.000000     0.000000     0.000000
    9     1.000000    90.000000     0.000000     1.000000     0.000000     0.500000     0.500000     0.500000
   10    -1.000000    90.000000     0.000000     1.000000     0.000000     0.500000     0.500000     0.500000
   11     1.000000   180.000000     0.707107     0.000000     0.707107     0.500000     0.500000     0.500000
   12    -1.000000   180.000000     0.707107     0.000000     0.707107     0.500000     0.500000     0.500000
   13     1.000000    90.000000     0.000000    -1.000000     0.000000     0.500000     0.500000     0.500000
   14    -1.000000    90.000000     0.000000    -1.000000     0.000000     0.500000     0.500000     0.500000
   15     1.000000   180.000000     0.707107     0.000000    -0.707107     0.500000     0.500000     0.500000
   16    -1.000000   180.000000     0.707107     0.000000    -0.707107     0.500000     0.500000     0.500000

 Subroutine IBZKPT returns following result:

 Found     40 irreducible k-points:

 Following reciprocal coordinates:
            Coordinates               Weight
  0.000000  0.000000  0.000000      1.000000
  0.142857  0.000000  0.000000      4.000000
  0.285714  0.000000  0.000000      4.000000
  0.428571  0.000000  0.000000      4.000000
  0.000000  0.142857  0.000000      2.000000
  0.142857  0.142857  0.000000      8.000000
  0.285714  0.142857  0.000000      8.000000
  0.428571  0.142857  0.000000      8.000000
  0.000000  0.285714  0.000000      2.000000
  0.142857  0.285714  0.000000      8.000000
  0.285714  0.285714  0.000000      8.000000
  0.428571  0.285714  0.000000      8.000000
  0.000000  0.428571  0.000000      2.000000
  0.142857  0.428571  0.000000      8.000000
  0.285714  0.428571  0.000000      8.000000
  0.428571  0.428571  0.000000      8.000000
  0.142857  0.000000  0.142857      4.000000
  0.285714  0.000000  0.142857      8.000000
  0.428571  0.000000  0.142857      8.000000
  0.142857  0.142857  0.142857      8.000000
  0.285714  0.142857  0.142857     16.000000
  0.428571  0.142857  0.142857     16.000000
  0.142857  0.285714  0.142857      8.000000
  0.285714  0.285714  0.142857     16.000000
  0.428571  0.285714  0.142857     16.000000
  0.142857  0.428571  0.142857      8.000000
[...]
 Maximum number of real-space cells 3x 3x 3
 Maximum number of reciprocal cells 3x 3x 3

--------------------------------------- Iteration      1(   1)  ---------------------------------------

 eigenvalue-minimisations  : 13440
 total energy-change (2. order) : 0.1068728E+04  (-0.5419848E+04)
 number of electron     128.0000000 magnetization       8.8000000
 augmentation part      128.0000000 magnetization       8.8000000

 Free energy of the ion-electron system (eV)
  alpha Z        PSCENC =       529.74407833
  Ewald energy   TEWEN  =     -9393.83377442
  -Hartree energ DENC   =     -3028.99731511
  -exchange      EXHF   =         0.00000000
  -V(xc)+E(xc)   XCENC  =        78.00041603
  PAW double counting   =     10320.96726947   -10647.99417394
  entropy T*S    EENTRO =        -0.00149853
  eigenvalues    EBANDS =      1981.38095294
  atomic energy  EATOM  =     11229.46195210
  Solvation  Ediel_sol  =         0.00000000
  free energy    TOTEN  =      1068.72790688 eV

  energy without entropy =     1068.72940541  energy(sigma->0) =     1068.72865614

[...]

 eigenvalue-minimisations  : 13440
 total energy-change (2. order) :-0.1066448E+04  (-0.1033570E+04)
 number of electron     128.0000000 magnetization       8.8000000
 augmentation part      128.0000000 magnetization       8.8000000

[...]

 Broyden mixing:
  rms(total) = 0.34133E+01    rms(broyden)= 0.34132E+01
  rms(prec ) = 0.53622E+01
  weight for this iteration     100.00

[...]

 eigenvalues of (default mixing * dielectric matrix)
  average eigenvalue GAMMA=   0.1863
  0.1863

[...]

 eigenvalue-minimisations  : 14493
 total energy-change (2. order) : 0.1932081E-02  (-0.1031834E-02)
 number of electron     127.9999557 magnetization       9.1447632
 augmentation part       67.8015610 magnetization       6.7290140

[...]

 Broyden mixing:
  rms(total) = 0.28792E-02    rms(broyden)= 0.28789E-02
  rms(prec ) = 0.36643E-02
  weight for this iteration     100.00

 eigenvalues of (default mixing * dielectric matrix)
  average eigenvalue GAMMA=   0.9732
  2.6047  2.6047  1.3495  1.0467  1.0467  0.1556  0.2056  0.2914  0.7432  0.7432
  0.6404  0.6404  0.5792

[...]

--------------------------------------- Iteration      1(  19)  ---------------------------------------

 eigenvalue-minimisations  :  8424
 total energy-change (2. order) :-0.9859086E-06  (-0.1786433E-05)
 number of electron     127.9999558 magnetization       9.1729161
 augmentation part       67.8023977 magnetization       6.7574103

 Free energy of the ion-electron system (eV)
  alpha Z        PSCENC =       529.74407833
  Ewald energy   TEWEN  =     -9393.83377442
  -Hartree energ DENC   =     -2825.57363499
  -exchange      EXHF   =         0.00000000
  -V(xc)+E(xc)   XCENC  =        76.06937853
  PAW double counting   =     12946.07061886   -13290.09305155
  entropy T*S    EENTRO =        -0.00283706
  eigenvalues    EBANDS =       625.38534942
  atomic energy  EATOM  =     11229.46195210
  Solvation  Ediel_sol  =         0.00000000
  free energy    TOTEN  =      -102.77192078 eV

  energy without entropy =     -102.76908372  energy(sigma->0) =     -102.77050225

 average (electrostatic) potential at core
  the test charge radii are     0.9791  1.0210  1.4837
  (the norm of the test charge is              1.0000)
       1 -83.9324       2 -83.9324       3 -83.9324       4 -83.9324       5 -83.9324
       6 -83.9324       7 -83.9324       8 -83.9324       9 -42.4306      10 -42.4306
      11 -42.5801      12 -42.2524      13 -42.5801      14 -42.2524      15 -34.6263
      16 -34.6263

 E-fermi :   7.3290     XC(G=0): -12.2726     alpha+bet :-14.0847

 spin component 1

 k-point     1 :       0.0000    0.0000    0.0000
  band No.  band energies     occupation
      1      -2.0123      1.00000
      2       0.4695      1.00000
      3       2.1753      1.00000
      4       2.2003      1.00000
      5       2.2003      1.00000
      6       2.3347      1.00000
      7       2.8895      1.00000
      8       3.0089      1.00000
      9       3.0577      1.00000
     10       3.0828      1.00000
     11       3.0828      1.00000
     12       3.2752      1.00000
     13       3.4152      1.00000
     14       3.8257      1.00000
     15       4.0622      1.00000
     16       4.1116      1.00000
     17       4.1195      1.00000
     18       4.1195      1.00000
     19       4.4051      1.00000
     20       4.4051      1.00000
     21       4.4360      1.00000
     22       4.5346      1.00000
     23       4.5346      1.00000
     24       4.6696      1.00000
     25       4.7352      1.00000
     26       4.8830      1.00000
     27       4.8889      1.00000
     28       4.8889      1.00000
     29       4.8951      1.00000
     30       4.9285      1.00000
     31       4.9285      1.00000
     32       5.1748      1.00000
     33       5.4305      1.00000
     34       5.4420      1.00000
     35       5.4420      1.00000
     36       5.5454      1.00000
     37       5.5454      1.00000
     38       5.5537      1.00000
     39       5.5791      1.00000
     40       5.5974      1.00000
     41       5.5974      1.00000
     42       5.6975      1.00000
     43       5.7759      1.00000
     44       5.8753      1.00000
     45       5.8753      1.00000
     46       5.8977      1.00000
     47       5.8977      1.00000
     48       5.9295      1.00000
     49       5.9314      1.00000
     50       6.0126      1.00000
     51       6.0409      1.00000
     52       6.0457      1.00000
     53       6.0659      1.00000
     54       6.1707      1.00000
     55       6.2582      1.00000
     56       6.3286      1.00000
     57       6.3392      1.00000
     58       6.3392      1.00000
     59       6.3538      1.00000
     60       6.3714      1.00000
[...]
     70       6.8184      1.00000
     71       7.1173      1.00000
     72       7.1173      1.00000
     73       7.2767      0.99989
     74       7.7966      0.00000
     75       7.7966      0.00000
     76       8.0261      0.00000
     77       8.3747      0.00000
     78       8.6705      0.00000
     79       8.7861      0.00000
     80       9.1025      0.00000
     81       9.1025      0.00000
     82       9.2021      0.00000
     83       9.8616      0.00000
     84      10.8539      0.00000

[...]

 spin component 2

[...]

 k-point    40 :       0.4286    0.4286    0.4286
  band No.  band energies     occupation
      1      -0.1283      1.00000
      2      -0.0581      1.00000
      3       1.5060      1.00000
      4       1.7252      1.00000
      5       1.7311      1.00000
      6       2.1837      1.00000
      7       2.2717      1.00000
      8       2.5825      1.00000
      9       3.8141      1.00000
     10       3.8572      1.00000
     11       4.0648      1.00000
     12       4.1832      1.00000
     13       4.2135      1.00000
     14       4.2184      1.00000
     15       4.2887      1.00000
     16       4.3055      1.00000
     17       4.4095      1.00000
     18       4.4358      1.00000
     19       4.6748      1.00000
     20       4.6771      1.00000
     21       4.7278      1.00000
     22       4.7451      1.00000
     23       4.9994      1.00000
     24       5.0285      1.00000
     25       5.1049      1.00000
     26       5.1161      1.00000
     27       5.2697      1.00000
     28       5.2797      1.00000
     29       5.2869      1.00000
     30       5.2948      1.00000
     31       5.3382      1.00000
     32       5.3451      1.00000
     33       5.3564      1.00000
     34       5.3599      1.00000
     35       5.3815      1.00000
     36       5.3980      1.00000
     37       5.4209      1.00000
     38       5.4240      1.00000
     39       5.4378      1.00000
     40       5.4679      1.00000
     41       5.4691      1.00000
     42       5.5359      1.00000
     43       5.7459      1.00000
     44       5.7835      1.00000
     45       5.7850      1.00000
     46       5.8480      1.00000
     47       5.8600      1.00000
     48       5.8924      1.00000
     49       6.1673      1.00000
     50       6.2361      1.00000
     51       6.2506      1.00000
     52       6.3130      1.00000
     53       6.5205      1.00000
     54       6.6155      1.00000
     55       6.6280      1.00000
     56       6.6296      1.00000
     57       6.6409      1.00000
     58       6.7186      1.00000
     59       8.0614      0.00000
     60       8.0669      0.00000
[...]
     70       8.4748      0.00000
     71       8.5786      0.00000
     72       8.5912      0.00000
     73       8.6073      0.00000
     74       8.8316      0.00000
     75       8.8341      0.00000
     76       8.9507      0.00000
     77       8.9638      0.00000
     78       9.0513      0.00000
     79      10.8817      0.00000
     80      11.4745      0.00000
     81      11.5655      0.00000
     82      11.7399      0.00000
     83      11.9491      0.00000
     84      12.5408      0.00000

 soft charge-density along one line, spin component           1
         0         1         2         3         4         5         6         7         8         9
 total charge-density along one line

 soft charge-density along one line, spin component           2
         0         1         2         3         4         5         6         7         8         9
 total charge-density along one line

------------------------ aborting loop because EDIFF is reached ----------------------------------------

 total charge

# of ion       s       p       d       tot
    1        0.465   0.419   8.392   9.275
    2        0.465   0.420   8.395   9.280
    3        0.466   0.417   8.372   9.255
    4        0.466   0.420   8.373   9.259
    5        0.466   0.420   8.373   9.259
    6        0.466   0.417   8.372   9.255
    7        0.465   0.420   8.395   9.280
    8        0.465   0.419   8.392   9.275
    9        0.322   0.312   4.917   5.552
   10        0.334   0.319   4.941   5.594
   11        0.331   0.319   4.950   5.599
   12        0.333   0.310   4.954   5.596
   13        0.330   0.322   4.879   5.531
   14        0.323   0.302   4.946   5.571
   15        1.263   1.815   0.355   3.433
   16        1.268   1.823   0.348   3.439
tot          8.228   8.877  97.351 114.456

 magnetization (x)

[...]

  FORCE on cell =-STRESS in cart. coord.  units (eV):
  Direction    XX          YY          ZZ          XY          YZ          ZX
  Alpha Z   529.74408   529.74408   529.74408
  Ewald   -3131.28731 -3131.28731 -3131.28731    -0.00000    -0.00000    -0.00000
  Hartree   941.20522   943.11268   941.20522    -0.00000    -0.00000    -0.00000
  E(xc)    -671.36356  -671.70032  -671.36356    -0.00000     0.00000     0.00000
  Local    -162.54101  -168.46376  -162.54101     0.00000     0.00000    -0.00000
  n-local  -149.17135  -146.17550  -145.86173     0.04944    -0.38687    -0.09552
  augment  1579.48803  1581.47306  1579.48803    -0.00000    -0.00000    -0.00000
  Kinetic  1053.48100  1064.68427  1069.26616     1.10252     0.73618     1.93051
  Fock        0.00000     0.00000     0.00000     0.00000     0.00000     0.00000
  Total      -0.89750     1.38720    -0.89750     0.00000     0.00000     0.00000
  in kB      -6.76965    10.46329    -6.76965     0.00000     0.00000     0.00000

 VOLUME and BASIS-vectors are now :
  energy-cutoff  :      550.00
  volume of cell :      212.41
      direct lattice vectors                 reciprocal lattice vectors
     5.966602175  0.000000000  0.000000000     0.167599577  0.000000000  0.000000000
     0.000000000  5.966602175  0.000000000     0.000000000  0.167599577  0.000000000
     0.000000000  0.000000000  5.966602175     0.000000000  0.000000000  0.167599577

  length of vectors
     5.966602175  5.966602175  5.966602175     0.167599577  0.167599577  0.167599577

 FORCES acting on ions
    electron-ion (+dipol)            ewald-force                    non-local-force                 convergence-correction
   -.253E-01 0.250E-08 0.253E-01   0.568E-13 -.284E-13 0.000E+00   0.288E-01 -.104E-16 -.288E-01   -.341E-02 -.431E-13 0.341E-02
   0.253E-01 0.250E-08 0.253E-01   0.924E-13 -.284E-13 0.355E-14   -.288E-01 0.000E+00 -.288E-01   0.341E-02 -.149E-13 0.341E-02
   -.253E-01 -.250E-08 0.253E-01   0.604E-13 0.355E-14 0.000E+00   0.288E-01 -.104E-16 -.288E-01   -.341E-02 0.706E-13 0.341E-02
   0.253E-01 -.249E-08 0.253E-01   0.568E-13 -.284E-13 0.355E-14   -.288E-01 0.173E-17 -.288E-01   0.341E-02 0.862E-13 0.341E-02
   -.253E-01 0.250E-08 -.253E-01   0.568E-13 -.284E-13 0.355E-14   0.288E-01 -.173E-17 0.288E-01   -.341E-02 -.355E-13 -.341E-02
   0.253E-01 0.250E-08 -.253E-01   0.604E-13 0.355E-14 0.000E+00   -.288E-01 -.104E-16 0.288E-01   0.341E-02 -.354E-13 -.341E-02
   -.253E-01 -.250E-08 -.253E-01   0.924E-13 -.284E-13 0.355E-14   0.288E-01 0.694E-17 0.288E-01   -.341E-02 0.710E-13 -.341E-02
   0.253E-01 -.250E-08 -.253E-01   0.568E-13 -.284E-13 0.000E+00   -.288E-01 0.139E-16 0.288E-01   0.341E-02 0.103E-12 -.341E-02
   0.203E-12 -.242E-14 -.934E-12   -.834E-13 0.276E-13 0.119E-14   0.000E+00 0.000E+00 0.000E+00   0.448E-13 0.383E-13 0.154E-13
   0.197E-12 0.174E-12 0.225E-12   -.847E-13 0.267E-13 -.858E-15   0.000E+00 0.000E+00 0.000E+00   0.471E-13 -.288E-13 0.133E-13
   -.326E-13 0.203E-12 -.298E-13   -.871E-13 0.272E-13 0.117E-14   0.000E+00 0.000E+00 0.000E+00   -.175E-13 -.375E-13 0.715E-14
   -.342E-13 -.361E-13 0.171E-12   -.868E-13 0.300E-13 -.333E-15   0.000E+00 0.000E+00 0.000E+00   0.548E-14 0.101E-13 0.974E-14
   0.197E-12 -.214E-13 0.857E-12   -.867E-13 0.254E-13 -.138E-14   0.000E+00 0.000E+00 0.000E+00   0.306E-13 0.211E-13 -.782E-14
   -.279E-13 0.204E-12 0.167E-12   -.835E-13 0.281E-13 -.142E-14   0.000E+00 0.000E+00 0.000E+00   -.277E-14 -.158E-13 -.182E-14
   -.347E-13 -.983E-14 -.216E-14   -.110E-13 -.574E-14 0.364E-14   0.000E+00 0.000E+00 0.000E+00   -.595E-14 0.912E-14 0.312E-15
   -.366E-13 -.255E-12 -.655E-12   -.923E-14 -.446E-14 -.199E-13   0.000E+00 0.000E+00 0.000E+00   0.371E-14 -.754E-14 -.109E-14
   0.614E-11 0.714E-11 0.814E-11   0.445E-15 -.872E-14 -.372E-14   0.694E-17 -.104E-16 -.104E-16   0.115E-12 0.191E-12 -.268E-12

 POSITION                                       TOTAL-FORCE (eV/Angst)
      1.49165      1.49165      1.49165         0.000058      0.000000     -0.000058
      4.47495      1.49165      1.49165        -0.000058     -0.000000     -0.000058
      1.49165      4.47495      1.49165         0.000058      0.000000     -0.000058
      4.47495      4.47495      1.49165        -0.000058     -0.000000     -0.000058
      1.49165      1.49165      4.47495         0.000058      0.000000      0.000058
      4.47495      1.49165      4.47495        -0.000058     -0.000000      0.000058
      1.49165      4.47495      4.47495         0.000058      0.000000      0.000058
      4.47495      4.47495      4.47495        -0.000058     -0.000000      0.000058
      2.98330      0.00000      0.00000         0.000000     -0.000000      0.000000
      2.98330      2.98330      0.00000         0.000000     -0.000000      0.000000
      0.00000      2.98330      0.00000         0.000000     -0.000000      0.000000
      0.00000      0.00000      2.98330         0.000000     -0.000000      0.000000
      2.98330      0.00000      2.98330         0.000000     -0.000000      0.000000
      0.00000      2.98330      2.98330         0.000000     -0.000000      0.000000
      0.00000      0.00000      0.00000         0.000000     -0.000000      0.000000
      2.98330      2.98330      2.98330         0.000000     -0.000000      0.000000
    total drift:                                0.000000      0.000000      0.000000

  FREE ENERGIE OF THE ION-ELECTRON SYSTEM (eV)
  free  energy   TOTEN  =      -102.77192078 eV

  energy  without entropy=     -102.76908372  energy(sigma->0) =     -102.77050225

 reached required accuracy - stopping structural energy minimisation

 total charge

[...]

 magnetization (x)

# of ion       s       p       d       tot
    1       -0.005  -0.003   0.229   0.221
    2       -0.007  -0.001   0.244   0.236
    3       -0.004  -0.006   0.221   0.210
    4       -0.006  -0.002   0.228   0.220
    5       -0.006  -0.002   0.228   0.220
    6       -0.004  -0.006   0.221   0.210
    7       -0.007  -0.001   0.244   0.236
    8       -0.005  -0.003   0.229   0.221
    9       -0.030  -0.024  -3.560  -3.615
   10       -0.033  -0.031  -3.524  -3.588
   11        0.026   0.046   3.530   3.603
   12        0.030   0.001   3.585   3.616
   13        0.031   0.037   3.499   3.567
   14        0.027   0.007   3.588   3.622
   15        0.000  -0.023  -0.005  -0.028
   16        0.000  -0.051  -0.004  -0.054
tot          0.008  -0.064   8.955   8.899