 vasp.5.4.4.18Apr17-6-g9f103f2a35 (build May 21 2018 20:56:50) complex
 executed on             LinuxGNU date 2021.10.15  15:42:50

 INCAR:
 POTCAR:    PAW_PBE Ni 02Aug2007
 POTCAR:    PAW_PBE Mn 06Sep2000
 POTCAR:    PAW_PBE In 08Apr2002

 POTCAR:    PAW_PBE Ni 02Aug2007
   VRHFIN =Ni:

   TITEL  = PAW_PBE Ni 02Aug2007
   POMASS =   58.690; ZVAL   =   10.000    mass and valenz
   ENMAX  =  269.532; ENMIN  =  202.149 eV

 POTCAR:    PAW_PBE Mn 06Sep2000
   VRHFIN =Mn: d6 s1

   TITEL  = PAW_PBE Mn 06Sep2000
   POMASS =   54.938; ZVAL   =    7.000    mass and valenz
   ENMAX  =  269.864; ENMIN  =  202.398 eV

 POTCAR:    PAW_PBE In 08Apr2002
   VRHFIN =In: s2p1

   TITEL  = PAW_PBE In 08Apr2002
   POMASS =  114.820; ZVAL   =    3.000    mass and valenz
   ENMAX  =   95.934; ENMIN  =   71.951 eV

 Optimization of the real space projectors (new method)

 maximal supplied QI-value         = 16.25
 optimisation between [QCUT,QGAM] = [ 11.86, 23.89] = [ 39.41,159.82] Ry
 Optimized for a Real-space Cutoff    1.33 Angstroem

   l    n(q)    QCUT    max X(q) W(low)/X(q) W(high)/X(q)  e(spline)
   2      9    11.864    60.317    0.21E-03    0.51E-03    0.25E-06
   2      9    11.864    55.921    0.21E-03    0.51E-03    0.26E-06
   0      9    11.864    51.690    0.22E-03    0.30E-04    0.17E-06
   0      9    11.864    30.015    0.20E-03    0.28E-04    0.15E-06
   1      9    11.864    18.849    0.76E-04    0.33E-03    0.17E-06
   1      9    11.864    14.624    0.60E-04    0.28E-03    0.15E-06
 Optimization of the real space projectors (new method)

[...]

   l    n(q)    QCUT    max X(q) W(low)/X(q) W(high)/X(q)  e(spline)
   2      9    11.864   110.144    0.49E-03    0.50E-03    0.21E-06
   2      9    11.864   103.200    0.49E-03    0.51E-03    0.22E-06
   0     10    11.864    68.437    0.12E-03    0.41E-04    0.21E-06
   0     10    11.864    33.971    0.11E-03    0.36E-04    0.19E-06
   1      9    11.864    17.065    0.24E-03    0.26E-03    0.93E-07
   1      9    11.864    12.540    0.19E-03    0.20E-03    0.80E-07
 Optimization of the real space projectors (new method)

 maximal supplied QI-value         = 12.09
 optimisation between [QCUT,QGAM] = [ 11.97, 23.95] = [ 40.14,160.58] Ry
 Optimized for a Real-space Cutoff    1.63 Angstroem

   l    n(q)    QCUT    max X(q) W(low)/X(q) W(high)/X(q)  e(spline)
   0     12    11.973   106.980    0.33E-03    0.16E-03    0.25E-05
   0     12    11.973    81.086    0.37E-03    0.18E-03    0.28E-05
   1     11    11.973    53.097    0.22E-03    0.42E-03    0.40E-05
   1     11    11.973    32.621    0.20E-03    0.40E-03    0.37E-05
   2     11    11.973     8.820    0.30E-03    0.17E-03    0.41E-06
  PAW_PBE Ni 02Aug2007                  :
  PAW_PBE Mn 06Sep2000                  :
  PAW_PBE In 08Apr2002                  :

 POSCAR: Ni2MnIn
  positions in direct lattice
  velocities in cartesian coordinates
 exchange correlation table for  LEXCH =        8
   RHO(1)=    0.500       N(1)  =     2000
   RHO(2)=  100.500       N(2)  =     4000

 ion  position               nearest neighbor table
   1  0.246  0.254  0.269-  14 2.49  13 2.52  11 2.52  12 2.55  10 2.62  15 2.65  16 2.65   9 2.67
                             5 2.75   3 2.93   2 2.93   2 3.03   3 3.03
   2  0.754  0.254  0.269-  14 2.49  13 2.52  11 2.52  12 2.55  10 2.62  15 2.65  16 2.65   9 2.67
                             6 2.75   4 2.93   1 2.93   4 3.03   1 3.03
   3  0.246  0.746  0.269-  14 2.49  13 2.52  11 2.52  12 2.55  10 2.62  15 2.65  16 2.65   9 2.67
                             7 2.75   4 2.93   1 2.93   1 3.03   4 3.03
   4  0.754  0.746  0.269-  14 2.49  13 2.52  11 2.52  12 2.55  10 2.62  15 2.65  16 2.65   9 2.67
                             8 2.75   3 2.93   2 2.93   2 3.03   3 3.03
   5  0.246  0.254  0.731-  14 2.49  13 2.52  11 2.52  12 2.55  10 2.62  15 2.65  16 2.65   9 2.67
                             1 2.75   6 2.93   7 2.93   6 3.03   7 3.03
   6  0.754  0.254  0.731-  14 2.49  13 2.52  11 2.52  12 2.55  10 2.62  15 2.65  16 2.65   9 2.67
                             2 2.75   5 2.93   8 2.93   8 3.03   5 3.03
   7  0.246  0.746  0.731-  14 2.49  13 2.52  11 2.52  12 2.55  10 2.62  15 2.65  16 2.65   9 2.67
                             3 2.75   5 2.93   8 2.93   5 3.03   8 3.03
   8  0.754  0.746  0.731-  14 2.49  13 2.52  11 2.52  12 2.55  10 2.62  15 2.65  16 2.65   9 2.67
                             4 2.75   6 2.93   7 2.93   6 3.03   7 3.03
   9  0.500  0.000  0.000-   1 2.67   2 2.67   3 2.67   4 2.67   5 2.67   6 2.67   7 2.67   8 2.67
                            12 2.98  15 2.98  16 2.98  12 2.98  16 2.98  15 2.98
  10  0.000  0.500  0.000-   1 2.62   2 2.62   3 2.62   4 2.62   5 2.62   6 2.62   7 2.62   8 2.62
                            14 2.98  15 2.98  16 2.98  14 2.98  15 2.98  16 2.98
  11  0.000  0.000  0.500-   1 2.52   2 2.52   3 2.52   4 2.52   5 2.52   6 2.52   7 2.52   8 2.52
                            12 2.98  14 2.98  15 2.98  15 2.98  14 2.98  12 2.98
  12  0.500  0.000  0.500-   1 2.55   2 2.55   3 2.55   4 2.55   5 2.55   6 2.55   7 2.55   8 2.55
                             9 2.98  11 2.98  13 2.98   9 2.98  13 2.98  11 2.98
  13  0.500  0.500  0.500-   1 2.52   2 2.52   3 2.52   4 2.52   5 2.52   6 2.52   7 2.52   8 2.52
                            12 2.98  14 2.98  16 2.98  16 2.98  12 2.98  14 2.98
  14  0.000  0.500  0.500-   1 2.49   2 2.49   3 2.49   4 2.49   5 2.49   6 2.49   7 2.49   8 2.49
                            10 2.98  11 2.98  13 2.98  10 2.98  11 2.98  13 2.98
  15  0.000  0.000  0.000-   1 2.65   2 2.65   3 2.65   4 2.65   5 2.65   6 2.65   7 2.65   8 2.65
                             9 2.98  10 2.98  11 2.98  11 2.98  10 2.98   9 2.98
  16  0.500  0.500  0.000-   1 2.65   2 2.65   3 2.65   4 2.65   5 2.65   6 2.65   7 2.65   8 2.65
                             9 2.98  10 2.98  13 2.98  13 2.98   9 2.98  10 2.98

  LATTYP: Found a simple cubic cell.
 ALAT       =     5.9569190785

  Lattice vectors:

 A1 = (   5.9569190785,   0.0000000000,   0.0000000000)
 A2 = (   0.0000000000,   5.9569190785,   0.0000000000)
 A3 = (   0.0000000000,   0.0000000000,   5.9569190785)

Analysis of symmetry for initial positions (statically):
 Subroutine PRICEL returns:
 Original cell was already a primitive cell.

 Routine SETGRP: Setting up the symmetry group for a
 simple cubic supercell.

 Subroutine GETGRP returns: Found 16 space group operations
 (whereof  8 operations were pure point group operations)
 out of a pool of 48 trial point group operations.

The static configuration has the point symmetry D_2h.
 The point group associated with its full space group is D_4h.

Analysis of symmetry for dynamics (positions and initial velocities):
 Subroutine PRICEL returns:
 Original cell was already a primitive cell.

[...]

The dynamic configuration has the point symmetry D_2h.
 The point group associated with its full space group is D_4h.

Analysis of structural, dynamic, and magnetic symmetry:
 Subroutine PRICEL returns:
 Original cell was already a primitive cell.

 Routine SETGRP: Setting up the symmetry group for a
 simple cubic supercell.

 Subroutine GETGRP returns: Found 16 space group operations
 (whereof  8 operations were pure point group operations)
 out of a pool of 48 trial point group operations.

The magnetic configuration has the point symmetry D_2h.
 The point group associated with its full space group is D_4h.

 Subroutine INISYM returns: Found 16 space group operations
 (whereof  8 operations are pure point group operations),
 and found     1 'primitive' translations

 KPOINTS: k-points

Automatic generation of k-mesh.
Space group operators:
 irot       det(A)        alpha          n_x          n_y          n_z        tau_x        tau_y        tau_z
    1     1.000000     0.000000     1.000000     0.000000     0.000000     0.000000     0.000000     0.000000
    2    -1.000000     0.000000     1.000000     0.000000     0.000000     0.000000     0.000000     0.000000
    3     1.000000   180.000000     0.000000     0.000000     1.000000     0.000000     0.000000     0.000000
    4    -1.000000   180.000000     0.000000     0.000000     1.000000     0.000000     0.000000     0.000000
    5     1.000000   180.000000     1.000000     0.000000     0.000000     0.000000     0.000000     0.000000
    6    -1.000000   180.000000     1.000000     0.000000     0.000000     0.000000     0.000000     0.000000
    7     1.000000   180.000000     0.000000     1.000000     0.000000     0.000000     0.000000     0.000000
    8    -1.000000   180.000000     0.000000     1.000000     0.000000     0.000000     0.000000     0.000000
    9     1.000000    90.000000     0.000000     0.000000    -1.000000     0.500000     0.500000     0.000000
   10    -1.000000    90.000000     0.000000     0.000000    -1.000000     0.500000     0.500000     0.000000
   11     1.000000    90.000000     0.000000     0.000000     1.000000     0.500000     0.500000     0.000000
   12    -1.000000    90.000000     0.000000     0.000000     1.000000     0.500000     0.500000     0.000000
   13     1.000000   180.000000     0.707107     0.707107     0.000000     0.500000     0.500000     0.000000
   14    -1.000000   180.000000     0.707107     0.707107     0.000000     0.500000     0.500000     0.000000
   15     1.000000   180.000000     0.707107    -0.707107     0.000000     0.500000     0.500000     0.000000
   16    -1.000000   180.000000     0.707107    -0.707107     0.000000     0.500000     0.500000     0.000000

 Subroutine IBZKPT returns following result:

 Found     40 irreducible k-points:

 Following reciprocal coordinates:
            Coordinates               Weight
  0.000000  0.000000  0.000000      1.000000
  0.142857  0.000000  0.000000      4.000000
  0.285714  0.000000  0.000000      4.000000
  0.428571  0.000000  0.000000      4.000000
  0.142857  0.142857  0.000000      4.000000
  0.285714  0.142857  0.000000      8.000000
  0.428571  0.142857  0.000000      8.000000
  0.285714  0.285714  0.000000      4.000000
  0.428571  0.285714  0.000000      8.000000
  0.428571  0.428571  0.000000      4.000000
  0.000000  0.000000  0.142857      2.000000
  0.142857  0.000000  0.142857      8.000000
  0.285714  0.000000  0.142857      8.000000
  0.428571  0.000000  0.142857      8.000000
  0.142857  0.142857  0.142857      8.000000
  0.285714  0.142857  0.142857     16.000000
  0.428571  0.142857  0.142857     16.000000
  0.285714  0.285714  0.142857      8.000000
  0.428571  0.285714  0.142857     16.000000
  0.428571  0.428571  0.142857      8.000000
  0.000000  0.000000  0.285714      2.000000
  0.142857  0.000000  0.285714      8.000000
  0.285714  0.000000  0.285714      8.000000
  0.428571  0.000000  0.285714      8.000000
  0.142857  0.142857  0.285714      8.000000
  0.285714  0.142857  0.285714     16.000000
  0.428571  0.142857  0.285714     16.000000
  0.285714  0.285714  0.285714      8.000000
  0.428571  0.285714  0.285714     16.000000
  0.428571  0.428571  0.285714      8.000000
  0.000000  0.000000  0.428571      2.000000
  0.142857  0.000000  0.428571      8.000000
  0.285714  0.000000  0.428571      8.000000
[...]
 Maximum number of real-space cells 3x 3x 3
 Maximum number of reciprocal cells 3x 3x 3

--------------------------------------- Iteration      1(   1)  ---------------------------------------

 eigenvalue-minimisations  : 13440
 total energy-change (2. order) : 0.1070682E+04  (-0.5445105E+04)
 number of electron     128.0000000 magnetization      16.8000000
 augmentation part      128.0000000 magnetization      16.8000000

 Free energy of the ion-electron system (eV)
  alpha Z        PSCENC =       532.33161010
  Ewald energy   TEWEN  =     -9280.94548480
  -Hartree energ DENC   =     -3147.97229624
  -exchange      EXHF   =         0.00000000
  -V(xc)+E(xc)   XCENC  =        78.43158365
  PAW double counting   =     10320.96726947   -10647.99417394
  entropy T*S    EENTRO =        -0.00107434
  eigenvalues    EBANDS =      1986.40212964
  atomic energy  EATOM  =     11229.46195210
  Solvation  Ediel_sol  =         0.00000000
  free energy    TOTEN  =      1070.68151565 eV

  energy without entropy =     1070.68258998  energy(sigma->0) =     1070.68205281

[...]

 eigenvalue-minimisations  : 13440
 total energy-change (2. order) :-0.1068881E+04  (-0.1034991E+04)
 number of electron     128.0000000 magnetization      16.8000000
 augmentation part      128.0000000 magnetization      16.8000000

[...]

 Broyden mixing:
  rms(total) = 0.34737E+01    rms(broyden)= 0.34736E+01
  rms(prec ) = 0.53422E+01
  weight for this iteration     100.00

[...]

 eigenvalues of (default mixing * dielectric matrix)
  average eigenvalue GAMMA=   0.2227
  0.2227

[...]

 eigenvalue-minimisations  : 15010
 total energy-change (2. order) :-0.1003349E-04  (-0.4565734E-04)
 number of electron     128.0000329 magnetization      17.4512926
 augmentation part       67.7315536 magnetization      13.0383558

 Broyden mixing:
  rms(total) = 0.54117E-02    rms(broyden)= 0.54112E-02
  rms(prec ) = 0.59952E-02
  weight for this iteration     100.00

 eigenvalues of (default mixing * dielectric matrix)
  average eigenvalue GAMMA=   0.8629
  2.5813  2.5813  1.1231  1.1231  0.7486  0.7486  0.7239  0.7067  0.5621  0.1346
  0.2096  0.2254  0.3202  0.2927

[...]

--------------------------------------- Iteration      1(  20)  ---------------------------------------

 eigenvalue-minimisations  : 11186
 total energy-change (2. order) : 0.7073759E-06  (-0.6773622E-05)
 number of electron     128.0000329 magnetization      17.4512926
 augmentation part       67.7315536 magnetization      13.0383558

 Free energy of the ion-electron system (eV)
  alpha Z        PSCENC =       532.33161010
  Ewald energy   TEWEN  =     -9280.94548480
  -Hartree energ DENC   =     -2942.00720386
  -exchange      EXHF   =         0.00000000
  -V(xc)+E(xc)   XCENC  =        75.65367308
  PAW double counting   =     12914.62948279   -13259.35953762
  entropy T*S    EENTRO =        -0.00259273
  eigenvalues    EBANDS =       626.76667884
  atomic energy  EATOM  =     11229.46195210
  Solvation  Ediel_sol  =         0.00000000
  free energy    TOTEN  =      -103.47142208 eV

  energy without entropy =     -103.46882936  energy(sigma->0) =     -103.47012572

 average (electrostatic) potential at core
  the test charge radii are     0.9791  1.0210  1.4837
  (the norm of the test charge is              1.0000)
       1 -83.9478       2 -83.9478       3 -83.9478       4 -83.9478       5 -83.9478
       6 -83.9478       7 -83.9478       8 -83.9478       9 -42.6109      10 -42.2413
      11 -42.3013      12 -42.5152      13 -42.3013      14 -42.2434      15 -34.5941
      16 -34.5941

 E-fermi :   7.3563     XC(G=0): -12.3020     alpha+bet :-14.1535

 spin component 1

 k-point     1 :       0.0000    0.0000    0.0000
  band No.  band energies     occupation
      1      -1.9536      1.00000
      2       0.7777      1.00000
      3       1.9412      1.00000
      4       2.2495      1.00000
      5       2.2495      1.00000
      6       2.2532      1.00000
      7       2.8104      1.00000
      8       2.9226      1.00000
      9       2.9564      1.00000
     10       3.0019      1.00000
     11       3.0019      1.00000
     12       3.0321      1.00000
     13       3.4973      1.00000
     14       3.6240      1.00000
     15       3.8041      1.00000
     16       4.2126      1.00000
     17       4.2126      1.00000
     18       4.2373      1.00000
     19       4.2733      1.00000
     20       4.2733      1.00000
     21       4.2998      1.00000
     22       4.2998      1.00000
     23       4.3276      1.00000
     24       4.3315      1.00000
     25       4.3759      1.00000
     26       4.4358      1.00000
     27       4.4358      1.00000
     28       4.7437      1.00000
     29       4.7437      1.00000
     30       4.7752      1.00000
     31       4.9263      1.00000
     32       4.9310      1.00000
     33       5.0719      1.00000
     34       5.1038      1.00000
     35       5.1573      1.00000
     36       5.1925      1.00000
     37       5.1925      1.00000
     38       5.3811      1.00000
     39       5.3811      1.00000
     40       5.3987      1.00000
     41       5.3987      1.00000
     42       5.4159      1.00000
     43       5.8565      1.00000
     44       5.9084      1.00000
     45       5.9084      1.00000
     46       5.9131      1.00000
     47       5.9229      1.00000
     48       5.9607      1.00000
     49       5.9645      1.00000
     50       5.9852      1.00000
     51       5.9955      1.00000
     52       6.1427      1.00000
     53       6.1427      1.00000
     54       6.1772      1.00000
     55       6.1779      1.00000
     56       6.1947      1.00000
     57       6.2210      1.00000
     58       6.2306      1.00000
     59       6.3174      1.00000
     60       6.3174      1.00000
[...]
     70       6.6115      1.00000
     71       6.7621      1.00000
     72       6.8292      1.00000
     73       6.9569      1.00000
     74       6.9569      1.00000
     75       6.9815      1.00000
     76       6.9905      1.00000
     77       6.9905      1.00000
     78       7.2916      1.00000
     79       8.4353      0.00000
     80       8.4353      0.00000
     81       8.5136      0.00000
     82       8.9808      0.00000
     83       9.0878      0.00000
     84      11.4258      0.00000

[...]

 spin component 2

[...]

 k-point    40 :       0.4286    0.4286    0.4286
  band No.  band energies     occupation
      1       0.0486      1.00000
      2       0.2361      1.00000
      3       1.5974      1.00000
      4       1.7474      1.00000
      5       2.0000      1.00000
      6       2.0256      1.00000
      7       2.4306      1.00000
      8       2.7390      1.00000
      9       4.0259      1.00000
     10       4.1023      1.00000
     11       4.1949      1.00000
     12       4.2186      1.00000
     13       4.2449      1.00000
     14       4.6210      1.00000
     15       4.6261      1.00000
     16       4.6687      1.00000
     17       4.7546      1.00000
     18       4.8352      1.00000
     19       4.8480      1.00000
     20       4.8988      1.00000
     21       4.9746      1.00000
     22       4.9784      1.00000
     23       5.0532      1.00000
     24       5.1328      1.00000
     25       5.1796      1.00000
     26       5.1884      1.00000
     27       5.2823      1.00000
     28       5.3653      1.00000
     29       5.3655      1.00000
     30       5.4027      1.00000
     31       5.4184      1.00000
     32       5.4436      1.00000
     33       5.4492      1.00000
     34       5.5020      1.00000
     35       5.5247      1.00000
     36       5.5512      1.00000
     37       5.5914      1.00000
     38       5.6150      1.00000
     39       5.6406      1.00000
     40       5.6433      1.00000
     41       5.6634      1.00000
     42       5.6922      1.00000
     43       5.8179      1.00000
     44       5.8464      1.00000
     45       5.9152      1.00000
     46       5.9814      1.00000
     47       6.1222      1.00000
     48       6.1272      1.00000
     49       6.2725      1.00000
     50       6.3864      1.00000
     51       6.5511      1.00000
     52       6.7671      1.00000
     53       6.7700      1.00000
     54       7.6772      0.00000
     55       7.6916      0.00000
     56       7.7234      0.00000
     57       7.8493      0.00000
     58       8.1076      0.00000
     59       8.1196      0.00000
     60       8.1461      0.00000
[...]
     70       8.7929      0.00000
     71       8.8559      0.00000
     72       8.8605      0.00000
     73       8.9616      0.00000
     74       8.9727      0.00000
     75       9.0693      0.00000
     76       9.0833      0.00000
     77       9.1053      0.00000
     78       9.1150      0.00000
     79      11.4389      0.00000
     80      11.8827      0.00000
     81      11.8904      0.00000
     82      12.0843      0.00000
     83      12.1280      0.00000
     84      12.3544      0.00000

 soft charge-density along one line, spin component           1
         0         1         2         3         4         5         6         7         8         9
 total charge-density along one line

 soft charge-density along one line, spin component           2
         0         1         2         3         4         5         6         7         8         9
 total charge-density along one line

------------------------ aborting loop because EDIFF is reached ----------------------------------------

 total charge

# of ion       s       p       d       tot
    1        0.471   0.431   8.359   9.261
    2        0.472   0.427   8.381   9.280
    3        0.472   0.434   8.371   9.277
    4        0.474   0.430   8.371   9.275
    5        0.474   0.430   8.371   9.275
    6        0.472   0.434   8.371   9.277
    7        0.472   0.427   8.381   9.280
    8        0.471   0.431   8.359   9.261
    9        0.306   0.290   4.917   5.514
   10        0.320   0.293   4.968   5.581
   11        0.339   0.343   5.003   5.685
   12        0.340   0.338   4.903   5.581
   13        0.341   0.340   4.943   5.624
   14        0.355   0.352   4.960   5.667
   15        1.243   1.733   0.306   3.282
   16        1.240   1.744   0.301   3.286
tot          8.260   8.879  97.267 114.406

 magnetization (x)

[...]

  FORCE on cell =-STRESS in cart. coord.  units (eV):
  Direction    XX          YY          ZZ          XY          YZ          ZX
  Alpha Z   532.33161   532.33161   532.33161
  Ewald   -2970.84316 -2970.84316 -3339.28773     0.00000    -0.00000    -0.00000
  Hartree  1094.43529  1094.43529   753.04582    -0.00000    -0.00000    -0.00000
  E(xc)    -670.78597  -670.78597  -670.98646    -0.00000    -0.00000    -0.00000
  Local    -481.10849  -481.10849   228.35624     0.00000    -0.00000     0.00000
  n-local  -148.96498  -145.67068  -146.26404    -0.26317    -0.84823     0.08800
  augment  1579.46391  1579.46391  1579.49143    -0.00000     0.00000    -0.00000
  Kinetic  1055.00009  1070.54966  1063.03906     0.64241    -0.32776     1.16790
  Fock        0.00000     0.00000     0.00000     0.00000     0.00000     0.00000
  Total      -1.04975    -1.04975    -0.27407    -0.00000     0.00000     0.00000
  in kB      -7.95670    -7.95670    -2.07737    -0.00000     0.00000     0.00000

 VOLUME and BASIS-vectors are now :
  energy-cutoff  :      550.00
  volume of cell :      211.38
      direct lattice vectors                 reciprocal lattice vectors
     5.956919078  0.000000000  0.000000000     0.167872014  0.000000000  0.000000000
     0.000000000  5.956919078  0.000000000     0.000000000  0.167872014  0.000000000
     0.000000000  0.000000000  5.956919078     0.000000000  0.000000000  0.167872014

  length of vectors
     5.956919078  5.956919078  5.956919078     0.167872014  0.167872014  0.167872014

 FORCES acting on ions
    electron-ion (+dipol)            ewald-force                    non-local-force                 convergence-correction
   -.242E+02 0.242E+02 0.180E+03   0.241E+02 -.241E+02 -.177E+03   0.103E+00 -.103E+00 -.253E+01   -.232E-01 0.232E-01 0.403E-01
   0.242E+02 0.242E+02 0.180E+03   -.241E+02 -.241E+02 -.177E+03   -.103E+00 -.103E+00 -.253E+01   0.232E-01 0.232E-01 0.403E-01
   -.242E+02 -.242E+02 0.180E+03   0.241E+02 0.241E+02 -.177E+03   0.103E+00 0.103E+00 -.253E+01   -.232E-01 -.232E-01 0.403E-01
   0.242E+02 -.242E+02 0.180E+03   -.241E+02 0.241E+02 -.177E+03   -.103E+00 0.103E+00 -.253E+01   0.232E-01 -.232E-01 0.403E-01
   -.242E+02 0.242E+02 -.180E+03   0.241E+02 -.241E+02 0.177E+03   0.103E+00 -.103E+00 0.253E+01   -.232E-01 0.232E-01 -.403E-01
   0.242E+02 0.242E+02 -.180E+03   -.241E+02 -.241E+02 0.177E+03   -.103E+00 -.103E+00 0.253E+01   0.232E-01 0.232E-01 -.403E-01
   -.242E+02 -.242E+02 -.180E+03   0.241E+02 0.241E+02 0.177E+03   0.103E+00 0.103E+00 0.253E+01   -.232E-01 -.232E-01 -.403E-01
   0.242E+02 -.242E+02 -.180E+03   -.241E+02 0.241E+02 0.177E+03   -.103E+00 0.103E+00 0.253E+01   0.232E-01 -.232E-01 -.403E-01
   0.177E-12 -.356E-14 -.650E-12   -.557E-13 0.183E-13 0.128E-13   0.000E+00 0.000E+00 0.000E+00   0.466E-13 0.443E-13 0.165E-13
   -.212E-13 0.222E-12 -.552E-13   0.137E-13 -.136E-13 -.583E-13   0.000E+00 0.000E+00 0.000E+00   -.141E-13 -.521E-13 -.185E-14
   -.171E-13 -.550E-13 0.213E-12   -.103E-12 0.101E-14 0.703E-13   0.000E+00 0.000E+00 0.000E+00   0.464E-13 0.345E-13 -.198E-13
   0.154E-12 -.516E-13 0.162E-11   0.174E-12 0.159E-13 0.302E-13   0.000E+00 0.000E+00 0.000E+00   0.287E-13 0.480E-13 -.218E-13
   0.151E-12 0.253E-12 0.972E-12   0.162E-15 -.149E-13 0.704E-13   0.000E+00 0.000E+00 0.000E+00   0.500E-13 -.316E-13 -.382E-13
   -.186E-13 0.211E-12 0.204E-12   -.169E-12 0.426E-13 0.161E-13   0.000E+00 0.000E+00 0.000E+00   0.152E-13 -.423E-13 -.251E-13
   -.243E-13 -.203E-13 -.123E-13   -.114E-14 -.550E-15 -.313E-16   0.000E+00 0.000E+00 0.000E+00   -.670E-14 0.143E-13 0.509E-14
   -.135E-13 -.473E-12 -.146E-13   0.446E-15 0.148E-13 0.352E-14   0.000E+00 0.000E+00 0.000E+00   0.131E-13 -.127E-13 0.758E-14
   0.858E-11 -.141E-10 -.173E-10   -.612E-14 0.636E-13 0.230E-12   -.278E-16 0.000E+00 0.000E+00   0.357E-12 0.355E-12 -.532E-12

 POSITION                                       TOTAL-FORCE (eV/Angst)
      1.46392      1.51454      1.60226         0.001559     -0.001559     -0.006128
      4.49300      1.51454      1.60226        -0.001559     -0.001559     -0.006128
      1.46392      4.44238      1.60226         0.001559      0.001559     -0.006128
      4.49300      4.44238      1.60226        -0.001559      0.001559     -0.006128
      1.46392      1.51454      4.35466         0.001559     -0.001559      0.006128
      4.49300      1.51454      4.35466        -0.001559     -0.001559      0.006128
      1.46392      4.44238      4.35466         0.001559      0.001559      0.006128
      4.49300      4.44238      4.35466        -0.001559      0.001559      0.006128
      2.97846      0.00000      0.00000         0.000000      0.000000      0.000000
      0.00000      2.97846      0.00000         0.000000      0.000000      0.000000
      0.00000      0.00000      2.97846         0.000000      0.000000      0.000000
      2.97846      0.00000      2.97846         0.000000      0.000000      0.000000
      2.97846      2.97846      2.97846         0.000000      0.000000      0.000000
      0.00000      2.97846      2.97846         0.000000      0.000000      0.000000
      0.00000      0.00000      0.00000         0.000000      0.000000      0.000000
      2.97846      2.97846      0.00000         0.000000      0.000000      0.000000
    total drift:                                0.000000     -0.000000     -0.000000

  FREE ENERGIE OF THE ION-ELECTRON SYSTEM (eV)
  free  energy   TOTEN  =      -103.47142208 eV

  energy  without entropy=     -103.46882936  energy(sigma->0) =     -103.47012572

 reached required accuracy - stopping structural energy minimisation

 total charge

[...]

 magnetization (x)

# of ion       s       p       d       tot
    1       -0.014  -0.013   0.425   0.398
    2       -0.013  -0.013   0.427   0.401
    3       -0.015  -0.007   0.438   0.416
    4       -0.014  -0.012   0.444   0.418
    5       -0.014  -0.012   0.444   0.418
    6       -0.015  -0.007   0.438   0.416
    7       -0.013  -0.013   0.427   0.401
    8       -0.014  -0.013   0.425   0.398
    9        0.038   0.038   3.608   3.684
   10        0.036   0.006   3.564   3.605
   11        0.028   0.025   3.358   3.410
   12       -0.042  -0.054  -3.490  -3.586
   13        0.032   0.013   3.313   3.357
   14        0.017   0.018   3.418   3.452
   15       -0.021  -0.085   0.000  -0.106
   16       -0.016  -0.074  -0.004  -0.095
tot         -0.043  -0.204  17.234  16.988