 vasp.5.4.4.18Apr17-6-g9f103f2a35 (build May 21 2018 20:56:50) complex
 executed on             LinuxGNU date 2021.10.15  15:41:50

 INCAR:
 POTCAR:    PAW_PBE Ni 02Aug2007
 POTCAR:    PAW_PBE Mn 06Sep2000
 POTCAR:    PAW_PBE In 08Apr2002

 POTCAR:    PAW_PBE Ni 02Aug2007
   VRHFIN =Ni:

   TITEL  = PAW_PBE Ni 02Aug2007
   POMASS =   58.690; ZVAL   =   10.000    mass and valenz
   ENMAX  =  269.532; ENMIN  =  202.149 eV

 POTCAR:    PAW_PBE Mn 06Sep2000
   VRHFIN =Mn: d6 s1

   TITEL  = PAW_PBE Mn 06Sep2000
   POMASS =   54.938; ZVAL   =    7.000    mass and valenz
   ENMAX  =  269.864; ENMIN  =  202.398 eV

 POTCAR:    PAW_PBE In 08Apr2002
   VRHFIN =In: s2p1

   TITEL  = PAW_PBE In 08Apr2002
   POMASS =  114.820; ZVAL   =    3.000    mass and valenz
   ENMAX  =   95.934; ENMIN  =   71.951 eV

 Optimization of the real space projectors (new method)

 maximal supplied QI-value         = 16.25
 optimisation between [QCUT,QGAM] = [ 11.86, 23.89] = [ 39.41,159.82] Ry
 Optimized for a Real-space Cutoff    1.33 Angstroem

   l    n(q)    QCUT    max X(q) W(low)/X(q) W(high)/X(q)  e(spline)
   2      9    11.864    60.317    0.21E-03    0.51E-03    0.25E-06
   2      9    11.864    55.921    0.21E-03    0.51E-03    0.26E-06
   0      9    11.864    51.690    0.22E-03    0.30E-04    0.17E-06
   0      9    11.864    30.015    0.20E-03    0.28E-04    0.15E-06
   1      9    11.864    18.849    0.76E-04    0.33E-03    0.17E-06
   1      9    11.864    14.624    0.60E-04    0.28E-03    0.15E-06
 Optimization of the real space projectors (new method)

[...]

   l    n(q)    QCUT    max X(q) W(low)/X(q) W(high)/X(q)  e(spline)
   2      9    11.864   110.144    0.49E-03    0.50E-03    0.21E-06
   2      9    11.864   103.200    0.49E-03    0.51E-03    0.22E-06
   0     10    11.864    68.437    0.12E-03    0.41E-04    0.21E-06
   0     10    11.864    33.971    0.11E-03    0.36E-04    0.19E-06
   1      9    11.864    17.065    0.24E-03    0.26E-03    0.93E-07
   1      9    11.864    12.540    0.19E-03    0.20E-03    0.80E-07
 Optimization of the real space projectors (new method)

 maximal supplied QI-value         = 12.09
 optimisation between [QCUT,QGAM] = [ 11.97, 23.95] = [ 40.14,160.58] Ry
 Optimized for a Real-space Cutoff    1.63 Angstroem

   l    n(q)    QCUT    max X(q) W(low)/X(q) W(high)/X(q)  e(spline)
   0     12    11.973   106.980    0.33E-03    0.16E-03    0.25E-05
   0     12    11.973    81.086    0.37E-03    0.18E-03    0.28E-05
   1     11    11.973    53.097    0.22E-03    0.42E-03    0.40E-05
   1     11    11.973    32.621    0.20E-03    0.40E-03    0.37E-05
   2     11    11.973     8.820    0.30E-03    0.17E-03    0.41E-06
  PAW_PBE Ni 02Aug2007                  :
  PAW_PBE Mn 06Sep2000                  :
  PAW_PBE In 08Apr2002                  :

 POSCAR: Ni2MnIn
  positions in direct lattice
  velocities in cartesian coordinates
 exchange correlation table for  LEXCH =        8
   RHO(1)=    0.500       N(1)  =     2000
   RHO(2)=  100.500       N(2)  =     4000

 ion  position               nearest neighbor table
   1  0.253  0.267  0.267-  13 2.46  14 2.48   9 2.58  12 2.58  11 2.60  10 2.60  16 2.69  15 2.71
                             3 2.78   5 2.78   2 2.95   2 3.01
   2  0.747  0.267  0.267-  13 2.46  14 2.48   9 2.58  12 2.58  11 2.60  10 2.60  16 2.69  15 2.71
                             4 2.78   6 2.78   1 2.95   1 3.01
   3  0.253  0.733  0.267-  13 2.46  14 2.48   9 2.58  12 2.58  11 2.60  10 2.60  16 2.69  15 2.71
                             1 2.78   7 2.78   4 2.95   4 3.01
   4  0.747  0.733  0.267-  13 2.46  14 2.48   9 2.58  12 2.58  11 2.60  10 2.60  16 2.69  15 2.71
                             2 2.78   8 2.78   3 2.95   3 3.01
   5  0.253  0.267  0.733-  13 2.46  14 2.48   9 2.58  12 2.58  11 2.60  10 2.60  16 2.69  15 2.71
                             1 2.78   7 2.78   6 2.95   6 3.01
   6  0.747  0.267  0.733-  13 2.46  14 2.48   9 2.58  12 2.58  11 2.60  10 2.60  16 2.69  15 2.71
                             2 2.78   8 2.78   5 2.95   5 3.01
   7  0.253  0.733  0.733-  13 2.46  14 2.48   9 2.58  12 2.58  11 2.60  10 2.60  16 2.69  15 2.71
                             3 2.78   5 2.78   8 2.95   8 3.01
   8  0.747  0.733  0.733-  13 2.46  14 2.48   9 2.58  12 2.58  11 2.60  10 2.60  16 2.69  15 2.71
                             4 2.78   6 2.78   7 2.95   7 3.01
   9  0.500  0.500  0.000-   1 2.58   2 2.58   3 2.58   4 2.58   5 2.58   6 2.58   7 2.58   8 2.58
                            10 2.98  13 2.98  16 2.98  13 2.98  16 2.98  10 2.98
  10  0.000  0.500  0.000-   1 2.60   2 2.60   3 2.60   4 2.60   5 2.60   6 2.60   7 2.60   8 2.60
                             9 2.98  14 2.98  15 2.98  14 2.98  15 2.98   9 2.98
  11  0.000  0.000  0.500-   1 2.60   2 2.60   3 2.60   4 2.60   5 2.60   6 2.60   7 2.60   8 2.60
                            12 2.98  14 2.98  15 2.98  15 2.98  14 2.98  12 2.98
  12  0.500  0.000  0.500-   1 2.58   2 2.58   3 2.58   4 2.58   5 2.58   6 2.58   7 2.58   8 2.58
                            11 2.98  13 2.98  16 2.98  16 2.98  13 2.98  11 2.98
  13  0.500  0.500  0.500-   1 2.46   2 2.46   3 2.46   4 2.46   5 2.46   6 2.46   7 2.46   8 2.46
                             9 2.98  12 2.98  14 2.98   9 2.98  12 2.98  14 2.98
  14  0.000  0.500  0.500-   1 2.48   2 2.48   3 2.48   4 2.48   5 2.48   6 2.48   7 2.48   8 2.48
                            10 2.98  11 2.98  13 2.98  10 2.98  11 2.98  13 2.98
  15  0.000  0.000  0.000-   1 2.71   2 2.71   3 2.71   4 2.71   5 2.71   6 2.71   7 2.71   8 2.71
                            10 2.98  11 2.98  16 2.98  11 2.98  10 2.98  16 2.98
  16  0.500  0.000  0.000-   1 2.69   2 2.69   3 2.69   4 2.69   5 2.69   6 2.69   7 2.69   8 2.69
                             9 2.98  12 2.98  15 2.98  12 2.98   9 2.98  15 2.98

  LATTYP: Found a simple cubic cell.
 ALAT       =     5.9641564135

  Lattice vectors:

 A1 = (   5.9641564135,   0.0000000000,   0.0000000000)
 A2 = (   0.0000000000,   5.9641564135,   0.0000000000)
 A3 = (   0.0000000000,   0.0000000000,   5.9641564135)

Analysis of symmetry for initial positions (statically):
 Subroutine PRICEL returns:
 Original cell was already a primitive cell.

 Routine SETGRP: Setting up the symmetry group for a
 simple cubic supercell.

 Subroutine GETGRP returns: Found 16 space group operations
 (whereof 16 operations were pure point group operations)
 out of a pool of 48 trial point group operations.

The static configuration has the point symmetry D_4h.

Analysis of symmetry for dynamics (positions and initial velocities):
 Subroutine PRICEL returns:
 Original cell was already a primitive cell.

[...]

The dynamic configuration has the point symmetry D_4h.

Analysis of structural, dynamic, and magnetic symmetry:
 Subroutine PRICEL returns:
 Original cell was already a primitive cell.

 Routine SETGRP: Setting up the symmetry group for a
 simple cubic supercell.

 Subroutine GETGRP returns: Found 16 space group operations
 (whereof 16 operations were pure point group operations)
 out of a pool of 48 trial point group operations.

The magnetic configuration has the point symmetry D_4h.

 Subroutine INISYM returns: Found 16 space group operations
 (whereof 16 operations are pure point group operations),
 and found     1 'primitive' translations

 KPOINTS: k-points

Automatic generation of k-mesh.
Space group operators:
 irot       det(A)        alpha          n_x          n_y          n_z        tau_x        tau_y        tau_z
    1     1.000000     0.000000     1.000000     0.000000     0.000000     0.000000     0.000000     0.000000
    2    -1.000000     0.000000     1.000000     0.000000     0.000000     0.000000     0.000000     0.000000
    3     1.000000   180.000000     0.000000     0.707107     0.707107     0.000000     0.000000     0.000000
    4    -1.000000   180.000000     0.000000     0.707107     0.707107     0.000000     0.000000     0.000000
    5     1.000000   180.000000     0.000000     0.000000     1.000000     0.000000     0.000000     0.000000
    6    -1.000000   180.000000     0.000000     0.000000     1.000000     0.000000     0.000000     0.000000
    7     1.000000    90.000000    -1.000000     0.000000     0.000000     0.000000     0.000000     0.000000
    8    -1.000000    90.000000    -1.000000     0.000000     0.000000     0.000000     0.000000     0.000000
    9     1.000000   180.000000     1.000000     0.000000     0.000000     0.000000     0.000000     0.000000
   10    -1.000000   180.000000     1.000000     0.000000     0.000000     0.000000     0.000000     0.000000
   11     1.000000    90.000000     1.000000     0.000000     0.000000     0.000000     0.000000     0.000000
   12    -1.000000    90.000000     1.000000     0.000000     0.000000     0.000000     0.000000     0.000000
   13     1.000000   180.000000     0.000000     1.000000     0.000000     0.000000     0.000000     0.000000
   14    -1.000000   180.000000     0.000000     1.000000     0.000000     0.000000     0.000000     0.000000
   15     1.000000   180.000000     0.000000    -0.707107     0.707107     0.000000     0.000000     0.000000
   16    -1.000000   180.000000     0.000000    -0.707107     0.707107     0.000000     0.000000     0.000000

 Subroutine IBZKPT returns following result:

 Found     40 irreducible k-points:

 Following reciprocal coordinates:
            Coordinates               Weight
  0.000000  0.000000  0.000000      1.000000
  0.142857  0.000000  0.000000      2.000000
  0.285714  0.000000  0.000000      2.000000
  0.428571  0.000000  0.000000      2.000000
  0.000000  0.142857  0.000000      4.000000
  0.142857  0.142857  0.000000      8.000000
  0.285714  0.142857  0.000000      8.000000
  0.428571  0.142857  0.000000      8.000000
  0.000000  0.285714  0.000000      4.000000
  0.142857  0.285714  0.000000      8.000000
  0.285714  0.285714  0.000000      8.000000
  0.428571  0.285714  0.000000      8.000000
  0.000000  0.428571  0.000000      4.000000
  0.142857  0.428571  0.000000      8.000000
  0.285714  0.428571  0.000000      8.000000
  0.428571  0.428571  0.000000      8.000000
  0.000000  0.142857  0.142857      4.000000
  0.142857  0.142857  0.142857      8.000000
  0.285714  0.142857  0.142857      8.000000
  0.428571  0.142857  0.142857      8.000000
  0.000000  0.285714  0.142857      8.000000
  0.142857  0.285714  0.142857     16.000000
  0.285714  0.285714  0.142857     16.000000
  0.428571  0.285714  0.142857     16.000000
  0.000000  0.428571  0.142857      8.000000
  0.142857  0.428571  0.142857     16.000000
  0.285714  0.428571  0.142857     16.000000
  0.428571  0.428571  0.142857     16.000000
  0.000000  0.285714  0.285714      4.000000
  0.142857  0.285714  0.285714      8.000000
  0.285714  0.285714  0.285714      8.000000
  0.428571  0.285714  0.285714      8.000000
  0.000000  0.428571  0.285714      8.000000
  0.142857  0.428571  0.285714     16.000000
  0.285714  0.428571  0.285714     16.000000
  0.428571  0.428571  0.285714     16.000000
  0.000000  0.428571  0.428571      4.000000
  0.142857  0.428571  0.428571      8.000000
  0.285714  0.428571  0.428571      8.000000
[...]
  Fock        0.00000     0.00000     0.00000     0.00000     0.00000     0.00000
  Total      -0.90463    -1.78664    -1.78664    -0.00000     0.00000    -0.00000
  in kB      -6.83182   -13.49275   -13.49275    -0.00000     0.00000    -0.00000

 VOLUME and BASIS-vectors are now :
  energy-cutoff  :      550.00
  volume of cell :      212.15
      direct lattice vectors                 reciprocal lattice vectors
     5.964156413  0.000000000  0.000000000     0.167668306  0.000000000  0.000000000
     0.000000000  5.964156413  0.000000000     0.000000000  0.167668306  0.000000000
     0.000000000  0.000000000  5.964156413     0.000000000  0.000000000  0.167668306

[...]

 FORCES acting on ions
    electron-ion (+dipol)            ewald-force                    non-local-force                 convergence-correction
   0.137E+02 0.162E+03 0.162E+03   -.137E+02 -.160E+03 -.160E+03   0.290E-01 -.234E+01 -.234E+01   0.127E-01 -.118E-02 -.118E-02
   -.137E+02 0.162E+03 0.162E+03   0.137E+02 -.160E+03 -.160E+03   -.290E-01 -.234E+01 -.234E+01   -.127E-01 -.118E-02 -.118E-02
   0.137E+02 -.162E+03 0.162E+03   -.137E+02 0.160E+03 -.160E+03   0.290E-01 0.234E+01 -.234E+01   0.127E-01 0.118E-02 -.118E-02
   -.137E+02 -.162E+03 0.162E+03   0.137E+02 0.160E+03 -.160E+03   -.290E-01 0.234E+01 -.234E+01   -.127E-01 0.118E-02 -.118E-02
   0.137E+02 0.162E+03 -.162E+03   -.137E+02 -.160E+03 0.160E+03   0.290E-01 -.234E+01 0.234E+01   0.127E-01 -.118E-02 0.118E-02
   -.137E+02 0.162E+03 -.162E+03   0.137E+02 -.160E+03 0.160E+03   -.290E-01 -.234E+01 0.234E+01   -.127E-01 -.118E-02 0.118E-02
   0.137E+02 -.162E+03 -.162E+03   -.137E+02 0.160E+03 0.160E+03   0.290E-01 0.234E+01 0.234E+01   0.127E-01 0.118E-02 0.118E-02
   -.137E+02 -.162E+03 -.162E+03   0.137E+02 0.160E+03 0.160E+03   -.290E-01 0.234E+01 0.234E+01   -.127E-01 0.118E-02 0.118E-02
   0.214E-12 0.153E-11 0.128E-11   0.970E-13 -.154E-13 0.307E-13   0.000E+00 0.000E+00 0.000E+00   -.883E-13 -.689E-13 0.678E-15
   -.658E-13 0.238E-12 -.425E-13   0.141E-12 -.438E-13 -.546E-13   0.000E+00 0.000E+00 0.000E+00   0.998E-13 -.768E-13 0.648E-14
   -.674E-13 -.741E-13 0.196E-12   0.111E-12 0.106E-13 0.274E-13   0.000E+00 0.000E+00 0.000E+00   0.940E-13 0.636E-13 0.749E-14
   0.216E-12 -.639E-13 0.263E-11   0.119E-12 0.533E-13 0.274E-13   0.000E+00 0.000E+00 0.000E+00   -.817E-13 0.744E-13 -.267E-13
   0.205E-12 0.383E-12 0.114E-11   0.139E-13 -.666E-13 0.122E-13   0.000E+00 0.000E+00 0.000E+00   -.111E-12 -.616E-13 -.186E-13
   -.726E-13 0.231E-12 0.172E-12   0.115E-12 0.329E-13 0.548E-13   0.000E+00 0.000E+00 0.000E+00   0.110E-12 -.667E-13 0.342E-14
   -.470E-13 -.258E-13 -.898E-14   0.101E-13 0.106E-13 0.187E-13   0.000E+00 0.000E+00 0.000E+00   0.328E-13 0.227E-13 0.182E-14
   0.228E-13 0.291E-13 0.554E-12   -.134E-13 -.320E-13 -.262E-14   0.000E+00 0.000E+00 0.000E+00   -.355E-13 0.238E-13 0.427E-14
   0.100E-10 0.116E-11 0.113E-10   -.136E-13 -.786E-13 0.572E-13   0.694E-17 0.000E+00 0.000E+00   0.387E-12 0.148E-13 -.317E-12

 POSITION                                       TOTAL-FORCE (eV/Angst)
      1.50617      1.59067      1.59067         0.013499     -0.002512     -0.002512
      4.45799      1.59067      1.59067        -0.013499     -0.002512     -0.002512
      1.50617      4.37349      1.59067         0.013499      0.002512     -0.002512
      4.45799      4.37349      1.59067        -0.013499      0.002512     -0.002512
      1.50617      1.59067      4.37349         0.013499     -0.002512      0.002512
      4.45799      1.59067      4.37349        -0.013499     -0.002512      0.002512
      1.50617      4.37349      4.37349         0.013499      0.002512      0.002512
      4.45799      4.37349      4.37349        -0.013499      0.002512      0.002512
      2.98208      2.98208      0.00000        -0.000000      0.000000      0.000000
      0.00000      2.98208      0.00000        -0.000000      0.000000      0.000000
      0.00000      0.00000      2.98208        -0.000000      0.000000      0.000000
      2.98208      0.00000      2.98208        -0.000000      0.000000      0.000000
      2.98208      2.98208      2.98208        -0.000000      0.000000      0.000000
      0.00000      2.98208      2.98208        -0.000000      0.000000      0.000000
      0.00000      0.00000      0.00000        -0.000000      0.000000      0.000000
      2.98208      0.00000      0.00000        -0.000000      0.000000      0.000000
    total drift:                                0.000000      0.000000      0.000000

  FREE ENERGIE OF THE ION-ELECTRON SYSTEM (eV)
  free  energy   TOTEN  =      -103.29022771 eV

  energy  without entropy=     -103.28772145  energy(sigma->0) =     -103.28897458

[...]

 eigenvalue-minimisations  : 11585
 total energy-change (2. order) : 0.2037939E-04  (-0.5950807E-05)
 number of electron     128.0000014 magnetization       8.8247850
 augmentation part       67.7097570 magnetization       6.7222417

 Broyden mixing:
  rms(total) = 0.23711E-02    rms(broyden)= 0.23708E-02
  rms(prec ) = 0.31819E-02
  weight for this iteration     100.00

 eigenvalues of (default mixing * dielectric matrix)
  average eigenvalue GAMMA=   0.4171
  0.6047  0.2294

[...]

--------------------------------------- Iteration      2(   4)  ---------------------------------------

 eigenvalue-minimisations  :  7128
 total energy-change (2. order) :-0.2431989E-06  (-0.1424538E-05)
 number of electron     128.0000014 magnetization       8.8247850
 augmentation part       67.7097570 magnetization       6.7222417

 Free energy of the ion-electron system (eV)
  alpha Z        PSCENC =       530.39605273
  Ewald energy   TEWEN  =     -9181.62808934
  -Hartree energ DENC   =     -3038.75834395
  -exchange      EXHF   =         0.00000000
  -V(xc)+E(xc)   XCENC  =        75.31882230
  PAW double counting   =     12855.34684375   -13199.79071486
  entropy T*S    EENTRO =        -0.00250569
  eigenvalues    EBANDS =       626.36568760
  atomic energy  EATOM  =     11229.46195210
  Solvation  Ediel_sol  =         0.00000000
  free energy    TOTEN  =      -103.29029535 eV

  energy without entropy =     -103.28778967  energy(sigma->0) =     -103.28904251

 average (electrostatic) potential at core
  the test charge radii are     0.9791  1.0210  1.4837
  (the norm of the test charge is              1.0000)
       1 -83.9356       2 -83.9356       3 -83.9356       4 -83.9356       5 -83.9356
       6 -83.9356       7 -83.9356       8 -83.9356       9 -42.3244      10 -42.5338
      11 -42.5338      12 -42.3244      13 -42.2679      14 -42.4169      15 -34.8578
      16 -34.8464

 E-fermi :   7.2977     XC(G=0): -12.2828     alpha+bet :-14.1021

[...]

 spin component 2

[...]

 k-point    40 :       0.4286    0.4286    0.4286
  band No.  band energies     occupation
      1      -0.3619      1.00000
      2       0.2087      1.00000
      3       1.5040      1.00000
      4       1.6804      1.00000
      5       2.0337      1.00000
      6       2.2824      1.00000
      7       2.3070      1.00000
      8       2.7196      1.00000
      9       3.8465      1.00000
     10       3.8885      1.00000
     11       4.0298      1.00000
     12       4.0676      1.00000
     13       4.1986      1.00000
     14       4.2453      1.00000
     15       4.2458      1.00000
     16       4.2555      1.00000
     17       4.3643      1.00000
     18       4.3824      1.00000
     19       4.6978      1.00000
     20       4.7174      1.00000
     21       4.7421      1.00000
     22       4.8172      1.00000
     23       4.8232      1.00000
     24       4.8465      1.00000
     25       4.9987      1.00000
     26       5.0304      1.00000
     27       5.0930      1.00000
     28       5.1008      1.00000
     29       5.1464      1.00000
     30       5.1682      1.00000
     31       5.1721      1.00000
     32       5.2389      1.00000
     33       5.2908      1.00000
     34       5.3475      1.00000
     35       5.3865      1.00000
     36       5.4379      1.00000
     37       5.4571      1.00000
     38       5.4793      1.00000
     39       5.4793      1.00000
     40       5.6241      1.00000
     41       5.6695      1.00000
     42       5.6936      1.00000
     43       5.7122      1.00000
     44       5.8032      1.00000
     45       5.9120      1.00000
     46       5.9269      1.00000
     47       5.9272      1.00000
     48       5.9479      1.00000
     49       6.1351      1.00000
     50       6.1457      1.00000
     51       6.2852      1.00000
     52       6.3034      1.00000
     53       6.3082      1.00000
     54       6.6187      1.00000
     55       6.6263      1.00000
     56       6.6348      1.00000
     57       6.6940      1.00000
     58       6.7534      1.00000
     59       7.6490      0.00000
     60       7.6633      0.00000
[...]
     70       8.6456      0.00000
     71       8.6629      0.00000
     72       8.7536      0.00000
     73       8.8644      0.00000
     74       8.8802      0.00000
     75       8.9627      0.00000
     76       9.0295      0.00000
     77       9.0730      0.00000
     78       9.0757      0.00000
     79      10.7754      0.00000
     80      11.3489      0.00000
     81      11.4916      0.00000
     82      12.0058      0.00000
     83      12.0997      0.00000
     84      12.2431      0.00000

[...]

 soft charge-density along one line, spin component           2
         0         1         2         3         4         5         6         7         8         9
 total charge-density along one line

------------------------ aborting loop because EDIFF is reached ----------------------------------------

[...]

  FORCE on cell =-STRESS in cart. coord.  units (eV):
  Direction    XX          YY          ZZ          XY          YZ          ZX
  Alpha Z   530.39605   530.39605   530.39605
  Ewald   -2808.52801 -3186.56379 -3186.56379     0.00000     0.00000    -0.00000
  Hartree  1253.28368   892.63909   892.63909    -0.00000    -0.00000    -0.00000
  E(xc)    -670.05297  -670.29762  -670.29762     0.00000     0.00000    -0.00000
  Local    -799.33446   -62.02022   -62.02022     0.00000     0.00000    -0.00000
  n-local  -148.46987  -149.06632  -146.64339     0.37959    -0.11387    -0.42965
  augment  1579.35710  1578.97034  1578.97034     0.00000     0.00000    -0.00000
  Kinetic  1062.30381  1054.61111  1070.95854     1.15375     0.69974     0.77774
  Fock        0.00000     0.00000     0.00000     0.00000     0.00000     0.00000
  Total      -1.04466    -1.94618    -1.94618     0.00000     0.00000     0.00000
  in kB      -7.88929   -14.69763   -14.69763     0.00000     0.00000     0.00000

 VOLUME and BASIS-vectors are now :
  energy-cutoff  :      550.00
  volume of cell :      212.15
      direct lattice vectors                 reciprocal lattice vectors
     5.964156413  0.000000000  0.000000000     0.167668306  0.000000000  0.000000000
     0.000000000  5.964156413  0.000000000     0.000000000  0.167668306  0.000000000
     0.000000000  0.000000000  5.964156413     0.000000000  0.000000000  0.167668306

  length of vectors
     5.964156413  5.964156413  5.964156413     0.167668306  0.167668306  0.167668306

 FORCES acting on ions
    electron-ion (+dipol)            ewald-force                    non-local-force                 convergence-correction
   0.143E+02 0.162E+03 0.162E+03   -.143E+02 -.160E+03 -.160E+03   0.973E-02 -.234E+01 -.234E+01   0.509E-02 -.537E-02 -.537E-02
   -.143E+02 0.162E+03 0.162E+03   0.143E+02 -.160E+03 -.160E+03   -.973E-02 -.234E+01 -.234E+01   -.509E-02 -.537E-02 -.537E-02
   0.143E+02 -.162E+03 0.162E+03   -.143E+02 0.160E+03 -.160E+03   0.973E-02 0.234E+01 -.234E+01   0.509E-02 0.537E-02 -.537E-02
   -.143E+02 -.162E+03 0.162E+03   0.143E+02 0.160E+03 -.160E+03   -.973E-02 0.234E+01 -.234E+01   -.509E-02 0.537E-02 -.537E-02
   0.143E+02 0.162E+03 -.162E+03   -.143E+02 -.160E+03 0.160E+03   0.973E-02 -.234E+01 0.234E+01   0.509E-02 -.537E-02 0.537E-02
   -.143E+02 0.162E+03 -.162E+03   0.143E+02 -.160E+03 0.160E+03   -.973E-02 -.234E+01 0.234E+01   -.509E-02 -.537E-02 0.537E-02
   0.143E+02 -.162E+03 -.162E+03   -.143E+02 0.160E+03 0.160E+03   0.973E-02 0.234E+01 0.234E+01   0.509E-02 0.537E-02 0.537E-02
   -.143E+02 -.162E+03 -.162E+03   0.143E+02 0.160E+03 0.160E+03   -.973E-02 0.234E+01 0.234E+01   -.509E-02 0.537E-02 0.537E-02
   0.200E-12 0.152E-11 0.127E-11   -.451E-13 -.154E-13 -.545E-13   0.000E+00 0.000E+00 0.000E+00   0.174E-12 0.396E-12 0.506E-12
   0.597E-14 0.220E-12 -.574E-13   0.846E-13 0.202E-13 -.262E-13   0.000E+00 0.000E+00 0.000E+00   -.164E-12 0.384E-12 0.492E-12
   0.116E-13 -.594E-13 0.196E-12   0.111E-12 -.604E-13 -.152E-13   0.000E+00 0.000E+00 0.000E+00   0.736E-13 0.517E-12 -.277E-12
   0.204E-12 -.543E-13 0.263E-11   -.519E-13 -.888E-13 0.416E-13   0.000E+00 0.000E+00 0.000E+00   -.966E-13 0.541E-12 -.307E-12
   0.195E-12 0.365E-12 0.115E-11   0.281E-13 -.972E-14 -.162E-13   0.000E+00 0.000E+00 0.000E+00   0.368E-11 -.101E-11 -.163E-12
   0.985E-15 0.217E-12 0.174E-12   0.229E-12 -.109E-12 -.589E-13   0.000E+00 0.000E+00 0.000E+00   -.361E-11 -.985E-12 -.144E-12
   0.413E-13 -.319E-13 -.175E-13   0.385E-13 0.710E-14 0.952E-15   0.000E+00 0.000E+00 0.000E+00   0.750E-12 -.195E-12 0.152E-12
   -.491E-13 0.159E-13 0.544E-12   -.134E-13 -.713E-14 -.618E-14   0.000E+00 0.000E+00 0.000E+00   -.751E-12 -.197E-12 0.157E-12
   0.114E-10 -.639E-11 0.781E-10   0.660E-15 0.209E-13 0.359E-13   -.104E-16 -.178E-14 -.888E-15   -.401E-13 0.346E-11 -.165E-10

 POSITION                                       TOTAL-FORCE (eV/Angst)
      1.50682      1.59055      1.59055         0.008632     -0.000452     -0.000452
      4.45734      1.59055      1.59055        -0.008632     -0.000452     -0.000452
      1.50682      4.37361      1.59055         0.008632      0.000452     -0.000452
      4.45734      4.37361      1.59055        -0.008632      0.000452     -0.000452
      1.50682      1.59055      4.37361         0.008632     -0.000452      0.000452
      4.45734      1.59055      4.37361        -0.008632     -0.000452      0.000452
      1.50682      4.37361      4.37361         0.008632      0.000452      0.000452
      4.45734      4.37361      4.37361        -0.008632      0.000452      0.000452
      2.98208      2.98208      0.00000         0.000000      0.000000      0.000000
     -0.00000      2.98208      0.00000         0.000000      0.000000      0.000000
     -0.00000      0.00000      2.98208         0.000000      0.000000      0.000000
      2.98208      0.00000      2.98208         0.000000      0.000000      0.000000
      2.98208      2.98208      2.98208         0.000000      0.000000      0.000000
     -0.00000      2.98208      2.98208         0.000000      0.000000      0.000000
     -0.00000      0.00000      0.00000         0.000000      0.000000      0.000000
      2.98208      0.00000      0.00000         0.000000      0.000000      0.000000
    total drift:                                0.000000     -0.000000      0.000000

  FREE ENERGIE OF THE ION-ELECTRON SYSTEM (eV)
  free  energy   TOTEN  =      -103.29029535 eV

  energy  without entropy=     -103.28778967  energy(sigma->0) =     -103.28904251

 d Force = 0.6052305E-04[ 0.458E-04, 0.752E-04]  d Energy = 0.6764526E-04-0.712E-05
 d Force = 0.2374011E+00[ 0.236E+00, 0.239E+00]  d Ewald  = 0.2374011E+00 0.227E-07

 Steepest descent step on ions:
 trial-energy change:   -0.000068  1 .order   -0.000061   -0.000075   -0.000046
  (g-gl).g = 0.752E-04      g.g   = 0.752E-04  gl.gl    = 0.000E+00
 g(Force)  = 0.752E-04   g(Stress)= 0.000E+00 ortho     = 0.000E+00
 gamma     =   0.00000
 trial     =   1.00000
 opt step  =   2.56203  (harmonic =   2.56203) maximal distance =0.00166849
 next E    =  -103.290324   (d E  =  -0.00010)

 reached required accuracy - stopping structural energy minimisation

 total charge

[...]

 magnetization (x)

# of ion       s       p       d       tot
    1       -0.008  -0.003   0.274   0.263
    2       -0.005  -0.007   0.281   0.269
    3       -0.005  -0.005   0.284   0.273
    4       -0.007  -0.003   0.276   0.267
    5       -0.007  -0.003   0.276   0.267
    6       -0.005  -0.005   0.284   0.273
    7       -0.005  -0.007   0.281   0.269
    8       -0.008  -0.003   0.274   0.263
    9        0.032   0.014   3.533   3.578
   10       -0.042  -0.035  -3.504  -3.582
   11       -0.043  -0.047  -3.553  -3.643
   12        0.035   0.012   3.548   3.595
   13        0.016   0.014   3.264   3.294
   14        0.030   0.032   3.253   3.316
   15        0.013   0.090  -0.010   0.094
   16       -0.022  -0.043   0.002  -0.063
tot         -0.032   0.003   8.762   8.733