 vasp.5.4.4.18Apr17-6-g9f103f2a35 (build May 21 2018 20:56:50) complex
 executed on             LinuxGNU date 2021.10.15  15:42:48

 INCAR:
 POTCAR:    PAW_PBE Ni 02Aug2007
 POTCAR:    PAW_PBE Mn 06Sep2000
 POTCAR:    PAW_PBE In 08Apr2002

 POTCAR:    PAW_PBE Ni 02Aug2007
   VRHFIN =Ni:

   TITEL  = PAW_PBE Ni 02Aug2007
   POMASS =   58.690; ZVAL   =   10.000    mass and valenz
   ENMAX  =  269.532; ENMIN  =  202.149 eV

 POTCAR:    PAW_PBE Mn 06Sep2000
   VRHFIN =Mn: d6 s1

   TITEL  = PAW_PBE Mn 06Sep2000
   POMASS =   54.938; ZVAL   =    7.000    mass and valenz
   ENMAX  =  269.864; ENMIN  =  202.398 eV

 POTCAR:    PAW_PBE In 08Apr2002
   VRHFIN =In: s2p1

   TITEL  = PAW_PBE In 08Apr2002
   POMASS =  114.820; ZVAL   =    3.000    mass and valenz
   ENMAX  =   95.934; ENMIN  =   71.951 eV

 Optimization of the real space projectors (new method)

 maximal supplied QI-value         = 16.25
 optimisation between [QCUT,QGAM] = [ 11.86, 23.89] = [ 39.41,159.82] Ry
 Optimized for a Real-space Cutoff    1.33 Angstroem

   l    n(q)    QCUT    max X(q) W(low)/X(q) W(high)/X(q)  e(spline)
   2      9    11.864    60.317    0.21E-03    0.51E-03    0.25E-06
   2      9    11.864    55.921    0.21E-03    0.51E-03    0.26E-06
   0      9    11.864    51.690    0.22E-03    0.30E-04    0.17E-06
   0      9    11.864    30.015    0.20E-03    0.28E-04    0.15E-06
   1      9    11.864    18.849    0.76E-04    0.33E-03    0.17E-06
   1      9    11.864    14.624    0.60E-04    0.28E-03    0.15E-06
 Optimization of the real space projectors (new method)

[...]

   l    n(q)    QCUT    max X(q) W(low)/X(q) W(high)/X(q)  e(spline)
   2      9    11.864   110.144    0.49E-03    0.50E-03    0.21E-06
   2      9    11.864   103.200    0.49E-03    0.51E-03    0.22E-06
   0     10    11.864    68.437    0.12E-03    0.41E-04    0.21E-06
   0     10    11.864    33.971    0.11E-03    0.36E-04    0.19E-06
   1      9    11.864    17.065    0.24E-03    0.26E-03    0.93E-07
   1      9    11.864    12.540    0.19E-03    0.20E-03    0.80E-07
 Optimization of the real space projectors (new method)

 maximal supplied QI-value         = 12.09
 optimisation between [QCUT,QGAM] = [ 11.97, 23.95] = [ 40.14,160.58] Ry
 Optimized for a Real-space Cutoff    1.63 Angstroem

   l    n(q)    QCUT    max X(q) W(low)/X(q) W(high)/X(q)  e(spline)
   0     12    11.973   106.980    0.33E-03    0.16E-03    0.25E-05
   0     12    11.973    81.086    0.37E-03    0.18E-03    0.28E-05
   1     11    11.973    53.097    0.22E-03    0.42E-03    0.40E-05
   1     11    11.973    32.621    0.20E-03    0.40E-03    0.37E-05
   2     11    11.973     8.820    0.30E-03    0.17E-03    0.41E-06
  PAW_PBE Ni 02Aug2007                  :
  PAW_PBE Mn 06Sep2000                  :
  PAW_PBE In 08Apr2002                  :

 POSCAR: Ni2MnIn
  positions in direct lattice
  velocities in cartesian coordinates
 exchange correlation table for  LEXCH =        8
   RHO(1)=    0.500       N(1)  =     2000
   RHO(2)=  100.500       N(2)  =     4000

 ion  position               nearest neighbor table
   1  0.250  0.250  0.270-  11 2.51  12 2.51  13 2.51  14 2.51   9 2.65  10 2.65  15 2.65  16 2.65
                             5 2.74   3 2.98   2 2.98   3 2.98   2 2.98
   2  0.750  0.250  0.270-  11 2.51  12 2.51  13 2.51  14 2.51   9 2.65  10 2.65  15 2.65  16 2.65
                             6 2.74   4 2.98   1 2.98   4 2.98   1 2.98
   3  0.250  0.750  0.270-  11 2.51  12 2.51  13 2.51  14 2.51   9 2.65  10 2.65  15 2.65  16 2.65
                             7 2.74   4 2.98   1 2.98   1 2.98   4 2.98
   4  0.750  0.750  0.270-  11 2.51  12 2.51  13 2.51  14 2.51   9 2.65  10 2.65  15 2.65  16 2.65
                             8 2.74   3 2.98   2 2.98   2 2.98   3 2.98
   5  0.250  0.250  0.730-  11 2.51  12 2.51  13 2.51  14 2.51   9 2.65  10 2.65  15 2.65  16 2.65
                             1 2.74   6 2.98   7 2.98   7 2.98   6 2.98
   6  0.750  0.250  0.730-  11 2.51  12 2.51  13 2.51  14 2.51   9 2.65  10 2.65  15 2.65  16 2.65
                             2 2.74   5 2.98   8 2.98   8 2.98   5 2.98
   7  0.250  0.750  0.730-  11 2.51  12 2.51  13 2.51  14 2.51   9 2.65  10 2.65  15 2.65  16 2.65
                             3 2.74   5 2.98   8 2.98   5 2.98   8 2.98
   8  0.750  0.750  0.730-  11 2.51  12 2.51  13 2.51  14 2.51   9 2.65  10 2.65  15 2.65  16 2.65
                             4 2.74   6 2.98   7 2.98   6 2.98   7 2.98
   9  0.500  0.000  0.000-   1 2.65   2 2.65   3 2.65   4 2.65   5 2.65   6 2.65   7 2.65   8 2.65
                            12 2.98  15 2.98  16 2.98  12 2.98  16 2.98  15 2.98
  10  0.000  0.500  0.000-   1 2.65   2 2.65   3 2.65   4 2.65   5 2.65   6 2.65   7 2.65   8 2.65
                            14 2.98  15 2.98  16 2.98  14 2.98  15 2.98  16 2.98
  11  0.000  0.000  0.500-   1 2.51   2 2.51   3 2.51   4 2.51   5 2.51   6 2.51   7 2.51   8 2.51
                            12 2.98  14 2.98  15 2.98  15 2.98  14 2.98  12 2.98
  12  0.500  0.000  0.500-   1 2.51   2 2.51   3 2.51   4 2.51   5 2.51   6 2.51   7 2.51   8 2.51
                             9 2.98  11 2.98  13 2.98   9 2.98  13 2.98  11 2.98
  13  0.500  0.500  0.500-   1 2.51   2 2.51   3 2.51   4 2.51   5 2.51   6 2.51   7 2.51   8 2.51
                            12 2.98  14 2.98  16 2.98  16 2.98  12 2.98  14 2.98
  14  0.000  0.500  0.500-   1 2.51   2 2.51   3 2.51   4 2.51   5 2.51   6 2.51   7 2.51   8 2.51
                            10 2.98  11 2.98  13 2.98  10 2.98  11 2.98  13 2.98
  15  0.000  0.000  0.000-   1 2.65   2 2.65   3 2.65   4 2.65   5 2.65   6 2.65   7 2.65   8 2.65
                             9 2.98  10 2.98  11 2.98  11 2.98  10 2.98   9 2.98
  16  0.500  0.500  0.000-   1 2.65   2 2.65   3 2.65   4 2.65   5 2.65   6 2.65   7 2.65   8 2.65
                             9 2.98  10 2.98  13 2.98  13 2.98   9 2.98  10 2.98

  LATTYP: Found a simple cubic cell.
 ALAT       =     5.9589310588

  Lattice vectors:

 A1 = (   5.9589310588,   0.0000000000,   0.0000000000)
 A2 = (   0.0000000000,   5.9589310588,   0.0000000000)
 A3 = (   0.0000000000,   0.0000000000,   5.9589310588)

Analysis of symmetry for initial positions (statically):
 Subroutine PRICEL returns following result:

  LATTYP: Found a simple tetragonal cell.
 ALAT       =     4.2136005603
 C/A-ratio  =     1.4142135624

[...]

   2 primitive cells build up your supercell.

 Routine SETGRP: Setting up the symmetry group for a
 simple cubic supercell.

 Subroutine GETGRP returns: Found 16 space group operations
 (whereof 16 operations were pure point group operations)
 out of a pool of 48 trial point group operations.

The static configuration has the point symmetry D_4h.

Analysis of symmetry for dynamics (positions and initial velocities):
 Subroutine PRICEL returns following result:

[...]

The dynamic configuration has the point symmetry D_4h.

Analysis of structural, dynamic, and magnetic symmetry:
 Subroutine PRICEL returns following result:

  LATTYP: Found a simple tetragonal cell.
 ALAT       =     4.2136005603
 C/A-ratio  =     1.4142135624

  Lattice vectors:

 A1 = (   2.9794655294,  -2.9794655294,   0.0000000000)
 A2 = (  -2.9794655294,  -2.9794655294,   0.0000000000)
 A3 = (   0.0000000000,   0.0000000000,  -5.9589310588)

   2 primitive cells build up your supercell.

 Routine SETGRP: Setting up the symmetry group for a
 simple cubic supercell.

 Subroutine GETGRP returns: Found 16 space group operations
 (whereof 16 operations were pure point group operations)
 out of a pool of 48 trial point group operations.

The magnetic configuration has the point symmetry D_4h.

 Subroutine INISYM returns: Found 16 space group operations
 (whereof 16 operations are pure point group operations),
 and found     2 'primitive' translations

 KPOINTS: k-points

Automatic generation of k-mesh.
Space group operators:
 irot       det(A)        alpha          n_x          n_y          n_z        tau_x        tau_y        tau_z
    1     1.000000     0.000000     1.000000     0.000000     0.000000     0.000000    -0.000000    -0.000000
    2    -1.000000     0.000000     1.000000     0.000000     0.000000     0.000000    -0.000000    -0.000000
    3     1.000000    90.000000     0.000000     0.000000    -1.000000     0.000000    -0.000000    -0.000000
    4    -1.000000    90.000000     0.000000     0.000000    -1.000000     0.000000    -0.000000    -0.000000
    5     1.000000   180.000000     0.000000     0.000000     1.000000     0.000000    -0.000000    -0.000000
    6    -1.000000   180.000000     0.000000     0.000000     1.000000     0.000000    -0.000000    -0.000000
    7     1.000000    90.000000     0.000000     0.000000     1.000000     0.000000    -0.000000    -0.000000
    8    -1.000000    90.000000     0.000000     0.000000     1.000000     0.000000    -0.000000    -0.000000
    9     1.000000   180.000000     1.000000     0.000000     0.000000     0.000000    -0.000000    -0.000000
   10    -1.000000   180.000000     1.000000     0.000000     0.000000     0.000000    -0.000000    -0.000000
   11     1.000000   180.000000     0.707107     0.707107     0.000000     0.000000    -0.000000    -0.000000
   12    -1.000000   180.000000     0.707107     0.707107     0.000000     0.000000    -0.000000    -0.000000
   13     1.000000   180.000000     0.000000     1.000000     0.000000     0.000000    -0.000000    -0.000000
   14    -1.000000   180.000000     0.000000     1.000000     0.000000     0.000000    -0.000000    -0.000000
   15     1.000000   180.000000     0.707107    -0.707107     0.000000     0.000000    -0.000000    -0.000000
   16    -1.000000   180.000000     0.707107    -0.707107     0.000000     0.000000    -0.000000    -0.000000

 Subroutine IBZKPT returns following result:

 Found     40 irreducible k-points:

 Following reciprocal coordinates:
            Coordinates               Weight
  0.000000  0.000000  0.000000      1.000000
  0.142857  0.000000  0.000000      4.000000
  0.285714  0.000000  0.000000      4.000000
  0.428571  0.000000  0.000000      4.000000
  0.142857  0.142857  0.000000      4.000000
  0.285714  0.142857  0.000000      8.000000
  0.428571  0.142857  0.000000      8.000000
  0.285714  0.285714  0.000000      4.000000
  0.428571  0.285714  0.000000      8.000000
  0.428571  0.428571  0.000000      4.000000
  0.000000  0.000000  0.142857      2.000000
  0.142857  0.000000  0.142857      8.000000
  0.285714  0.000000  0.142857      8.000000
  0.428571  0.000000  0.142857      8.000000
  0.142857  0.142857  0.142857      8.000000
  0.285714  0.142857  0.142857     16.000000
  0.428571  0.142857  0.142857     16.000000
  0.285714  0.285714  0.142857      8.000000
  0.428571  0.285714  0.142857     16.000000
  0.428571  0.428571  0.142857      8.000000
  0.000000  0.000000  0.285714      2.000000
  0.142857  0.000000  0.285714      8.000000
  0.285714  0.000000  0.285714      8.000000
  0.428571  0.000000  0.285714      8.000000
  0.142857  0.142857  0.285714      8.000000
  0.285714  0.142857  0.285714     16.000000
  0.428571  0.142857  0.285714     16.000000
  0.285714  0.285714  0.285714      8.000000
[...]

 First call to EWALD:  gamma=   0.297
 Maximum number of real-space cells 3x 3x 3
 Maximum number of reciprocal cells 3x 3x 3

--------------------------------------- Iteration      1(   1)  ---------------------------------------

 eigenvalue-minimisations  : 13440
 total energy-change (2. order) : 0.1066227E+04  (-0.5421431E+04)
 number of electron     128.0000000 magnetization       8.8000000
 augmentation part      128.0000000 magnetization       8.8000000

 Free energy of the ion-electron system (eV)
  alpha Z        PSCENC =       531.79258097
  Ewald energy   TEWEN  =     -9272.77343122
  -Hartree energ DENC   =     -3154.40181558
  -exchange      EXHF   =         0.00000000
  -V(xc)+E(xc)   XCENC  =        78.43452448
  PAW double counting   =     10320.96726947   -10647.99417394
  entropy T*S    EENTRO =        -0.00134324
  eigenvalues    EBANDS =      1980.74117312
  atomic energy  EATOM  =     11229.46195210
  Solvation  Ediel_sol  =         0.00000000
  free energy    TOTEN  =      1066.22673615 eV

  energy without entropy =     1066.22807939  energy(sigma->0) =     1066.22740777

[...]

 eigenvalue-minimisations  : 13440
 total energy-change (2. order) :-0.1064900E+04  (-0.1031638E+04)
 number of electron     128.0000000 magnetization       8.8000000
 augmentation part      128.0000000 magnetization       8.8000000

[...]

 Broyden mixing:
  rms(total) = 0.34493E+01    rms(broyden)= 0.34492E+01
  rms(prec ) = 0.52938E+01
  weight for this iteration     100.00

[...]

 eigenvalues of (default mixing * dielectric matrix)
  average eigenvalue GAMMA=   0.2249
  0.2249

[...]

 eigenvalue-minimisations  : 13316
 total energy-change (2. order) : 0.8192856E-04  (-0.1763918E-04)
 number of electron     128.0000045 magnetization       8.9585830
 augmentation part       67.7603350 magnetization       6.8338397

 Broyden mixing:
  rms(total) = 0.33821E-02    rms(broyden)= 0.33816E-02
  rms(prec ) = 0.39904E-02
  weight for this iteration     100.00

 eigenvalues of (default mixing * dielectric matrix)
  average eigenvalue GAMMA=   0.9593
  2.5119  2.5119  1.1530  1.1530  0.7847  0.7847  0.6431  0.6431  0.5611  0.1887
  0.2567  0.3190

[...]

--------------------------------------- Iteration      1(  18)  ---------------------------------------

 eigenvalue-minimisations  :  9741
 total energy-change (2. order) :-0.5769805E-05  (-0.4037743E-05)
 number of electron     128.0000045 magnetization       8.9585830
 augmentation part       67.7603350 magnetization       6.8338397

 Free energy of the ion-electron system (eV)
  alpha Z        PSCENC =       531.79258097
  Ewald energy   TEWEN  =     -9272.77343122
  -Hartree energ DENC   =     -2951.45063593
  -exchange      EXHF   =         0.00000000
  -V(xc)+E(xc)   XCENC  =        75.69186264
  PAW double counting   =     12911.70295781   -13256.13469760
  entropy T*S    EENTRO =        -0.00267859
  eigenvalues    EBANDS =       628.34941373
  atomic energy  EATOM  =     11229.46195210
  Solvation  Ediel_sol  =         0.00000000
  free energy    TOTEN  =      -103.36267609 eV

  energy without entropy =     -103.35999750  energy(sigma->0) =     -103.36133679

 average (electrostatic) potential at core
  the test charge radii are     0.9791  1.0210  1.4837
  (the norm of the test charge is              1.0000)
       1 -83.9331       2 -83.9331       3 -83.9331       4 -83.9331       5 -83.9331
       6 -83.9331       7 -83.9331       8 -83.9331       9 -42.5158      10 -42.5158
      11 -42.3001      12 -42.1930      13 -42.3001      14 -42.1930      15 -34.6235
      16 -34.6235

 E-fermi :   7.3100     XC(G=0): -12.2939     alpha+bet :-14.1392

 spin component 1

 k-point     1 :       0.0000    0.0000    0.0000
  band No.  band energies     occupation
      1      -1.9106      1.00000
      2       0.9043      1.00000
      3       1.9885      1.00000
      4       2.2483      1.00000
      5       2.2766      1.00000
      6       2.2766      1.00000
      7       2.7852      1.00000
      8       2.8884      1.00000
      9       2.9836      1.00000
     10       3.0904      1.00000
     11       3.0904      1.00000
     12       3.2462      1.00000
     13       3.2723      1.00000
     14       3.6392      1.00000
     15       3.9934      1.00000
     16       4.1010      1.00000
     17       4.1010      1.00000
     18       4.3351      1.00000
     19       4.3438      1.00000
     20       4.3438      1.00000
     21       4.3557      1.00000
     22       4.4386      1.00000
     23       4.4386      1.00000
     24       4.4438      1.00000
     25       4.8203      1.00000
     26       4.8203      1.00000
     27       4.8540      1.00000
     28       5.0567      1.00000
     29       5.0899      1.00000
     30       5.1078      1.00000
     31       5.1078      1.00000
     32       5.4084      1.00000
     33       5.4488      1.00000
     34       5.4488      1.00000
     35       5.4575      1.00000
     36       5.4575      1.00000
     37       5.4784      1.00000
     38       5.5181      1.00000
     39       5.5532      1.00000
     40       5.6276      1.00000
     41       5.6276      1.00000
     42       5.8366      1.00000
     43       5.9818      1.00000
     44       5.9882      1.00000
     45       6.0535      1.00000
     46       6.0788      1.00000
     47       6.0788      1.00000
     48       6.1326      1.00000
     49       6.2714      1.00000
     50       6.3019      1.00000
     51       6.3325      1.00000
     52       6.3424      1.00000
     53       6.3630      1.00000
     54       6.3630      1.00000
     55       6.3752      1.00000
     56       6.4260      1.00000
     57       6.4260      1.00000
     58       6.4431      1.00000
     59       6.4431      1.00000
     60       6.4950      1.00000
[...]
     70       6.8986      1.00000
     71       6.9879      1.00000
     72       6.9879      1.00000
     73       7.3400      0.01703
     74       7.4069      0.00000
     75       7.9235      0.00000
     76       7.9235      0.00000
     77       8.6323      0.00000
     78       8.6323      0.00000
     79       8.6631      0.00000
     80       8.7928      0.00000
     81       8.8257      0.00000
     82       9.0740      0.00000
     83       9.2672      0.00000
     84      11.4025      0.00000

[...]

 spin component 2

[...]

 k-point    40 :       0.4286    0.4286    0.4286
  band No.  band energies     occupation
      1       0.0176      1.00000
      2       0.2324      1.00000
      3       1.5066      1.00000
      4       1.6012      1.00000
      5       1.7475      1.00000
      6       1.9414      1.00000
      7       2.5413      1.00000
      8       2.7958      1.00000
      9       3.7404      1.00000
     10       3.7953      1.00000
     11       3.9665      1.00000
     12       4.0112      1.00000
     13       4.2386      1.00000
     14       4.2501      1.00000
     15       4.3492      1.00000
     16       4.3678      1.00000
     17       4.4892      1.00000
     18       4.5057      1.00000
     19       4.6408      1.00000
     20       4.6850      1.00000
     21       4.8715      1.00000
     22       4.8844      1.00000
     23       4.9142      1.00000
     24       4.9334      1.00000
     25       4.9691      1.00000
     26       4.9873      1.00000
     27       5.0841      1.00000
     28       5.1479      1.00000
     29       5.1518      1.00000
     30       5.1754      1.00000
     31       5.2434      1.00000
     32       5.2915      1.00000
     33       5.3074      1.00000
     34       5.3781      1.00000
     35       5.4272      1.00000
     36       5.4431      1.00000
     37       5.4812      1.00000
     38       5.4955      1.00000
     39       5.5484      1.00000
     40       5.5938      1.00000
     41       5.6024      1.00000
     42       5.6182      1.00000
     43       5.7918      1.00000
     44       5.8203      1.00000
     45       5.8396      1.00000
     46       5.8688      1.00000
     47       6.0683      1.00000
     48       6.0704      1.00000
     49       6.1042      1.00000
     50       6.1140      1.00000
     51       6.2258      1.00000
     52       6.2265      1.00000
     53       6.4459      1.00000
     54       6.4679      1.00000
     55       6.5486      1.00000
     56       6.5655      1.00000
     57       6.6871      1.00000
     58       6.6919      1.00000
     59       7.8478      0.00000
     60       7.8812      0.00000
[...]
     70       8.7370      0.00000
     71       8.8151      0.00000
     72       8.8391      0.00000
     73       8.8764      0.00000
     74       8.9182      0.00000
     75       9.0165      0.00000
     76       9.0259      0.00000
     77       9.1488      0.00000
     78       9.1513      0.00000
     79      11.0186      0.00000
     80      11.6707      0.00000
     81      11.6773      0.00000
     82      11.7755      0.00000
     83      12.0197      0.00000
     84      12.0871      0.00000

 soft charge-density along one line, spin component           1
         0         1         2         3         4         5         6         7         8         9
 total charge-density along one line

 soft charge-density along one line, spin component           2
         0         1         2         3         4         5         6         7         8         9
 total charge-density along one line

------------------------ aborting loop because EDIFF is reached ----------------------------------------

 total charge

# of ion       s       p       d       tot
    1        0.474   0.427   8.376   9.276
    2        0.472   0.427   8.375   9.274
    3        0.472   0.427   8.375   9.274
    4        0.474   0.427   8.376   9.276
    5        0.474   0.427   8.376   9.276
    6        0.472   0.427   8.375   9.274
    7        0.472   0.427   8.375   9.274
    8        0.474   0.427   8.376   9.276
    9        0.309   0.293   4.933   5.535
   10        0.309   0.293   4.933   5.535
   11        0.339   0.342   4.975   5.656
   12        0.348   0.334   4.958   5.640
   13        0.339   0.342   4.975   5.656
   14        0.348   0.334   4.958   5.640
   15        1.244   1.730   0.299   3.273
   16        1.244   1.730   0.299   3.273
tot          8.263   8.814  97.334 114.410

 magnetization (x)

[...]

  FORCE on cell =-STRESS in cart. coord.  units (eV):
  Direction    XX          YY          ZZ          XY          YZ          ZX
  Alpha Z   531.79258   531.79258   531.79258
  Ewald   -2958.05285 -2958.05285 -3356.69629     0.00000     0.00000    -0.00000
  Hartree  1107.45353  1107.45353   736.47108    -0.00000    -0.00000    -0.00000
  E(xc)    -671.02411  -671.02411  -670.60581     0.00000    -0.00000    -0.00000
  Local    -507.63641  -507.63641   268.19808     0.00000    -0.00000     0.00000
  n-local  -150.42899  -146.31162  -148.93751    -0.08967    -0.66461     0.33973
  augment  1580.20962  1580.20962  1577.17159     0.00000    -0.00000    -0.00000
  Kinetic  1054.94721  1075.22809  1061.03210    -0.26255     1.05035     1.18471
  Fock        0.00000     0.00000     0.00000     0.00000     0.00000     0.00000
  Total      -0.54030    -0.54030    -1.57418     0.00000    -0.00000    -0.00000
  in kB      -4.09107    -4.09107   -11.91954     0.00000    -0.00000    -0.00000

 VOLUME and BASIS-vectors are now :
  energy-cutoff  :      550.00
  volume of cell :      211.59
      direct lattice vectors                 reciprocal lattice vectors
     5.958931059  0.000000000  0.000000000     0.167815333  0.000000000  0.000000000
     0.000000000  5.958931059  0.000000000     0.000000000  0.167815333  0.000000000
     0.000000000  0.000000000  5.958931059     0.000000000  0.000000000  0.167815333

  length of vectors
     5.958931059  5.958931059  5.958931059     0.167815333  0.167815333  0.167815333

 FORCES acting on ions
    electron-ion (+dipol)            ewald-force                    non-local-force                 convergence-correction
   0.791E-12 0.573E-12 0.186E+03   -.924E-13 0.355E-13 -.183E+03   0.260E-17 -.520E-17 -.272E+01   -.710E-15 -.397E-13 0.840E-02
   0.993E-12 -.151E-11 0.186E+03   -.639E-13 0.213E-13 -.183E+03   -.781E-17 0.694E-17 -.272E+01   0.206E-14 -.124E-13 0.840E-02
   0.391E-12 0.385E-11 0.186E+03   -.639E-13 0.497E-13 -.183E+03   0.607E-17 -.347E-17 -.272E+01   0.600E-13 0.380E-13 0.840E-02
   0.193E-11 -.442E-11 0.186E+03   -.497E-13 0.639E-13 -.183E+03   -.867E-18 0.000E+00 -.272E+01   -.557E-13 0.292E-13 0.840E-02
   0.551E-12 0.686E-12 -.186E+03   -.853E-13 -.213E-13 0.183E+03   0.260E-17 0.867E-18 0.272E+01   0.513E-13 -.157E-13 -.840E-02
   0.158E-11 -.746E-12 -.186E+03   -.568E-13 -.711E-14 0.183E+03   0.173E-17 0.347E-17 0.272E+01   -.113E-13 -.627E-13 -.840E-02
   0.323E-12 0.311E-11 -.186E+03   -.711E-13 -.711E-14 0.183E+03   0.000E+00 0.000E+00 0.272E+01   0.219E-14 0.780E-13 -.840E-02
   0.209E-11 0.365E-11 -.186E+03   -.426E-13 0.711E-14 0.183E+03   -.260E-17 -.954E-17 0.272E+01   0.186E-13 0.152E-12 -.840E-02
   0.207E-12 -.164E-14 -.615E-12   -.873E-13 -.244E-13 -.313E-13   -.265E-22 0.265E-22 0.000E+00   -.273E-14 0.385E-13 0.371E-13
   -.387E-13 0.223E-12 -.574E-13   -.883E-13 -.146E-13 -.313E-13   -.199E-22 0.265E-22 0.662E-23   0.387E-13 -.462E-13 0.446E-13
   -.487E-13 -.679E-13 0.208E-12   0.181E-12 -.107E-13 0.289E-13   0.000E+00 0.000E+00 0.000E+00   0.507E-13 0.389E-13 -.250E-13
   0.202E-12 -.538E-13 0.165E-11   0.188E-12 -.112E-13 0.316E-13   0.132E-22 0.000E+00 0.000E+00   -.777E-14 0.488E-13 -.285E-13
   0.204E-12 0.195E-12 0.997E-12   0.185E-12 -.150E-13 0.355E-15   0.000E+00 0.000E+00 0.000E+00   -.159E-13 -.365E-13 -.737E-13
   -.506E-13 0.217E-12 0.201E-12   0.187E-12 -.155E-13 0.308E-14   0.662E-23 0.000E+00 0.331E-23   0.626E-13 -.424E-13 -.497E-13
   -.181E-13 -.242E-13 -.167E-13   -.142E-13 -.108E-14 -.152E-13   0.132E-22 -.662E-23 0.000E+00   0.821E-14 0.139E-13 0.101E-13
   -.109E-13 -.486E-12 0.203E-13   -.128E-13 0.855E-16 -.152E-13   0.000E+00 -.132E-22 0.000E+00   -.891E-14 -.135E-13 0.183E-13
   0.910E-11 0.520E-11 0.891E-11   0.134E-13 0.498E-13 -.859E-13   0.173E-17 -.694E-17 -.444E-15   0.191E-12 0.169E-12 -.407E-12

 POSITION                                       TOTAL-FORCE (eV/Angst)
      1.48973      1.48973      1.60968         0.000000      0.000000     -0.000348
      4.46920      1.48973      1.60968        -0.000000      0.000000     -0.000348
      1.48973      4.46920      1.60968        -0.000000      0.000000     -0.000348
      4.46920      4.46920      1.60968         0.000000     -0.000000     -0.000348
      1.48973      1.48973      4.34925        -0.000000     -0.000000      0.000348
      4.46920      1.48973      4.34925         0.000000      0.000000      0.000348
      1.48973      4.46920      4.34925         0.000000      0.000000      0.000348
      4.46920      4.46920      4.34925        -0.000000     -0.000000      0.000348
      2.97947      0.00000      0.00000        -0.000000     -0.000000      0.000000
      0.00000      2.97947      0.00000        -0.000000     -0.000000     -0.000000
      0.00000      0.00000      2.97947        -0.000000     -0.000000      0.000000
      2.97947      0.00000      2.97947         0.000000     -0.000000      0.000000
      2.97947      2.97947      2.97947        -0.000000     -0.000000     -0.000000
      0.00000      2.97947      2.97947        -0.000000     -0.000000      0.000000
      0.00000      0.00000      0.00000        -0.000000     -0.000000      0.000000
      2.97947      2.97947      0.00000        -0.000000     -0.000000      0.000000
    total drift:                                0.000000      0.000000      0.000000

  FREE ENERGIE OF THE ION-ELECTRON SYSTEM (eV)
  free  energy   TOTEN  =      -103.36267609 eV

  energy  without entropy=     -103.35999750  energy(sigma->0) =     -103.36133679

 reached required accuracy - stopping structural energy minimisation

 total charge

[...]

 magnetization (x)

# of ion       s       p       d       tot
    1       -0.006  -0.003   0.299   0.289
    2       -0.007  -0.001   0.291   0.283
    3       -0.007  -0.001   0.291   0.283
    4       -0.006  -0.003   0.299   0.289
    5       -0.006  -0.003   0.299   0.289
    6       -0.007  -0.001   0.291   0.283
    7       -0.007  -0.001   0.291   0.283
    8       -0.006  -0.003   0.299   0.289
    9       -0.041  -0.033  -3.582  -3.656
   10       -0.041  -0.033  -3.582  -3.656
   11        0.018   0.016   3.359   3.393
   12        0.029   0.011   3.482   3.522
   13        0.018   0.016   3.359   3.393
   14        0.029   0.011   3.482   3.522
   15        0.001   0.044  -0.006   0.038
   16        0.001   0.044  -0.006   0.038
tot         -0.041   0.062   8.860   8.882