 vasp.5.4.4.18Apr17-6-g9f103f2a35 (build May 21 2018 20:56:50) complex
 executed on             LinuxGNU date 2021.10.15  15:42:05

 INCAR:
 POTCAR:    PAW_PBE Ni 02Aug2007
 POTCAR:    PAW_PBE Mn 06Sep2000
 POTCAR:    PAW_PBE In 08Apr2002

 POTCAR:    PAW_PBE Ni 02Aug2007
   VRHFIN =Ni:

   TITEL  = PAW_PBE Ni 02Aug2007
   POMASS =   58.690; ZVAL   =   10.000    mass and valenz
   ENMAX  =  269.532; ENMIN  =  202.149 eV

 POTCAR:    PAW_PBE Mn 06Sep2000
   VRHFIN =Mn: d6 s1

   TITEL  = PAW_PBE Mn 06Sep2000
   POMASS =   54.938; ZVAL   =    7.000    mass and valenz
   ENMAX  =  269.864; ENMIN  =  202.398 eV

 POTCAR:    PAW_PBE In 08Apr2002
   VRHFIN =In: s2p1

   TITEL  = PAW_PBE In 08Apr2002
   POMASS =  114.820; ZVAL   =    3.000    mass and valenz
   ENMAX  =   95.934; ENMIN  =   71.951 eV

 Optimization of the real space projectors (new method)

 maximal supplied QI-value         = 16.25
 optimisation between [QCUT,QGAM] = [ 11.86, 23.89] = [ 39.41,159.82] Ry
 Optimized for a Real-space Cutoff    1.33 Angstroem

   l    n(q)    QCUT    max X(q) W(low)/X(q) W(high)/X(q)  e(spline)
   2      9    11.864    60.317    0.21E-03    0.51E-03    0.25E-06
   2      9    11.864    55.921    0.21E-03    0.51E-03    0.26E-06
   0      9    11.864    51.690    0.22E-03    0.30E-04    0.17E-06
   0      9    11.864    30.015    0.20E-03    0.28E-04    0.15E-06
   1      9    11.864    18.849    0.76E-04    0.33E-03    0.17E-06
   1      9    11.864    14.624    0.60E-04    0.28E-03    0.15E-06
 Optimization of the real space projectors (new method)

[...]

   l    n(q)    QCUT    max X(q) W(low)/X(q) W(high)/X(q)  e(spline)
   2      9    11.864   110.144    0.49E-03    0.50E-03    0.21E-06
   2      9    11.864   103.200    0.49E-03    0.51E-03    0.22E-06
   0     10    11.864    68.437    0.12E-03    0.41E-04    0.21E-06
   0     10    11.864    33.971    0.11E-03    0.36E-04    0.19E-06
   1      9    11.864    17.065    0.24E-03    0.26E-03    0.93E-07
   1      9    11.864    12.540    0.19E-03    0.20E-03    0.80E-07
 Optimization of the real space projectors (new method)

 maximal supplied QI-value         = 12.09
 optimisation between [QCUT,QGAM] = [ 11.97, 23.95] = [ 40.14,160.58] Ry
 Optimized for a Real-space Cutoff    1.63 Angstroem

   l    n(q)    QCUT    max X(q) W(low)/X(q) W(high)/X(q)  e(spline)
   0     12    11.973   106.980    0.33E-03    0.16E-03    0.25E-05
   0     12    11.973    81.086    0.37E-03    0.18E-03    0.28E-05
   1     11    11.973    53.097    0.22E-03    0.42E-03    0.40E-05
   1     11    11.973    32.621    0.20E-03    0.40E-03    0.37E-05
   2     11    11.973     8.820    0.30E-03    0.17E-03    0.41E-06
  PAW_PBE Ni 02Aug2007                  :
  PAW_PBE Mn 06Sep2000                  :
  PAW_PBE In 08Apr2002                  :

 POSCAR: Ni2MnIn
  positions in direct lattice
  velocities in cartesian coordinates
 exchange correlation table for  LEXCH =        8
   RHO(1)=    0.500       N(1)  =     2000
   RHO(2)=  100.500       N(2)  =     4000

 ion  position               nearest neighbor table
   1  0.250  0.266  0.266-  13 2.47  14 2.47   9 2.59  10 2.59  11 2.59  12 2.59  15 2.69  16 2.69
                             3 2.79   5 2.79   2 2.98   2 2.98
   2  0.750  0.266  0.266-  13 2.47  14 2.47   9 2.59  10 2.59  11 2.59  12 2.59  15 2.69  16 2.69
                             4 2.79   6 2.79   1 2.98   1 2.98
   3  0.250  0.734  0.266-  13 2.47  14 2.47   9 2.59  10 2.59  11 2.59  12 2.59  15 2.69  16 2.69
                             1 2.79   7 2.79   4 2.98   4 2.98
   4  0.750  0.734  0.266-  13 2.47  14 2.47   9 2.59  10 2.59  11 2.59  12 2.59  15 2.69  16 2.69
                             2 2.79   8 2.79   3 2.98   3 2.98
   5  0.250  0.266  0.734-  13 2.47  14 2.47   9 2.59  10 2.59  11 2.59  12 2.59  15 2.69  16 2.69
                             1 2.79   7 2.79   6 2.98   6 2.98
   6  0.750  0.266  0.734-  13 2.47  14 2.47   9 2.59  10 2.59  11 2.59  12 2.59  15 2.69  16 2.69
                             2 2.79   8 2.79   5 2.98   5 2.98
   7  0.250  0.734  0.734-  13 2.47  14 2.47   9 2.59  10 2.59  11 2.59  12 2.59  15 2.69  16 2.69
                             3 2.79   5 2.79   8 2.98   8 2.98
   8  0.750  0.734  0.734-  13 2.47  14 2.47   9 2.59  10 2.59  11 2.59  12 2.59  15 2.69  16 2.69
                             4 2.79   6 2.79   7 2.98   7 2.98
   9  0.500  0.500  0.000-   1 2.59   2 2.59   3 2.59   4 2.59   5 2.59   6 2.59   7 2.59   8 2.59
                            10 2.98  13 2.98  16 2.98  13 2.98  16 2.98  10 2.98
  10  0.000  0.500  0.000-   1 2.59   2 2.59   3 2.59   4 2.59   5 2.59   6 2.59   7 2.59   8 2.59
                             9 2.98  14 2.98  15 2.98  14 2.98  15 2.98   9 2.98
  11  0.000  0.000  0.500-   1 2.59   2 2.59   3 2.59   4 2.59   5 2.59   6 2.59   7 2.59   8 2.59
                            12 2.98  14 2.98  15 2.98  15 2.98  14 2.98  12 2.98
  12  0.500  0.000  0.500-   1 2.59   2 2.59   3 2.59   4 2.59   5 2.59   6 2.59   7 2.59   8 2.59
                            11 2.98  13 2.98  16 2.98  16 2.98  13 2.98  11 2.98
  13  0.500  0.500  0.500-   1 2.47   2 2.47   3 2.47   4 2.47   5 2.47   6 2.47   7 2.47   8 2.47
                             9 2.98  12 2.98  14 2.98   9 2.98  12 2.98  14 2.98
  14  0.000  0.500  0.500-   1 2.47   2 2.47   3 2.47   4 2.47   5 2.47   6 2.47   7 2.47   8 2.47
                            10 2.98  11 2.98  13 2.98  10 2.98  11 2.98  13 2.98
  15  0.000  0.000  0.000-   1 2.69   2 2.69   3 2.69   4 2.69   5 2.69   6 2.69   7 2.69   8 2.69
                            10 2.98  11 2.98  16 2.98  11 2.98  10 2.98  16 2.98
  16  0.500  0.000  0.000-   1 2.69   2 2.69   3 2.69   4 2.69   5 2.69   6 2.69   7 2.69   8 2.69
                             9 2.98  12 2.98  15 2.98  12 2.98   9 2.98  15 2.98

  LATTYP: Found a simple cubic cell.
 ALAT       =     5.9640971889

  Lattice vectors:

 A1 = (   5.9640971889,   0.0000000000,   0.0000000000)
 A2 = (   0.0000000000,   5.9640971889,   0.0000000000)
 A3 = (   0.0000000000,   0.0000000000,   5.9640971889)

Analysis of symmetry for initial positions (statically):
 Subroutine PRICEL returns following result:

  LATTYP: Found a simple tetragonal cell.
 ALAT       =     5.9640971889
 C/A-ratio  =     0.5000000000

[...]

   2 primitive cells build up your supercell.

 Routine SETGRP: Setting up the symmetry group for a
 simple cubic supercell.

 Subroutine GETGRP returns: Found 16 space group operations
 (whereof 16 operations were pure point group operations)
 out of a pool of 48 trial point group operations.

The static configuration has the point symmetry D_4h.

Analysis of symmetry for dynamics (positions and initial velocities):
 Subroutine PRICEL returns following result:

  LATTYP: Found a simple tetragonal cell.
 ALAT       =     5.9640971889
 C/A-ratio  =     0.5000000000

  Lattice vectors:

 A1 = (   0.0000000000,   5.9640971889,   0.0000000000)
 A2 = (   0.0000000000,   0.0000000000,  -5.9640971889)
 A3 = (  -2.9820485945,   0.0000000000,   0.0000000000)

   2 primitive cells build up your supercell.

[...]

The dynamic configuration has the point symmetry D_4h.

Analysis of structural, dynamic, and magnetic symmetry:
 Subroutine PRICEL returns:
 Original cell was already a primitive cell.

 Routine SETGRP: Setting up the symmetry group for a
 simple cubic supercell.

 Subroutine GETGRP returns: Found 16 space group operations
 (whereof  8 operations were pure point group operations)
 out of a pool of 48 trial point group operations.

The magnetic configuration has the point symmetry D_2h.
 The point group associated with its full space group is D_4h.

 Subroutine INISYM returns: Found 16 space group operations
 (whereof  8 operations are pure point group operations),
 and found     1 'primitive' translations

 KPOINTS: k-points

Automatic generation of k-mesh.
Space group operators:
 irot       det(A)        alpha          n_x          n_y          n_z        tau_x        tau_y        tau_z
    1     1.000000     0.000001     1.000000     0.000000     0.000000     0.000000     0.000000     0.000000
    2    -1.000000     0.000001     1.000000     0.000000     0.000000     0.000000     0.000000     0.000000
    3     1.000000   180.000000     0.000000     0.000000     1.000000     0.000000     0.000000     0.000000
    4    -1.000000   180.000000     0.000000     0.000000     1.000000     0.000000     0.000000     0.000000
    5     1.000000   180.000000     1.000000     0.000000     0.000000     0.000000     0.000000     0.000000
    6    -1.000000   180.000000     1.000000     0.000000     0.000000     0.000000     0.000000     0.000000
    7     1.000000   180.000000     0.000000     1.000000     0.000000     0.000000     0.000000     0.000000
    8    -1.000000   180.000000     0.000000     1.000000     0.000000     0.000000     0.000000     0.000000
    9     1.000000   180.000000     0.000000     0.707107     0.707107     0.500000     0.000000     0.000000
   10    -1.000000   180.000000     0.000000     0.707107     0.707107     0.500000     0.000000     0.000000
   11     1.000000    90.000000    -1.000000     0.000000     0.000000     0.500000     0.000000     0.000000
   12    -1.000000    90.000000    -1.000000     0.000000     0.000000     0.500000     0.000000     0.000000
   13     1.000000    90.000000     1.000000     0.000000     0.000000     0.500000     0.000000     0.000000
   14    -1.000000    90.000000     1.000000     0.000000     0.000000     0.500000     0.000000     0.000000
   15     1.000000   180.000000     0.000000    -0.707107     0.707107     0.500000     0.000000     0.000000
   16    -1.000000   180.000000     0.000000    -0.707107     0.707107     0.500000     0.000000     0.000000

 Subroutine IBZKPT returns following result:

 Found     40 irreducible k-points:

 Following reciprocal coordinates:
            Coordinates               Weight
  0.000000  0.000000  0.000000      1.000000
  0.142857  0.000000  0.000000      2.000000
  0.285714  0.000000  0.000000      2.000000
  0.428571  0.000000  0.000000      2.000000
  0.000000  0.142857  0.000000      4.000000
  0.142857  0.142857  0.000000      8.000000
  0.285714  0.142857  0.000000      8.000000
  0.428571  0.142857  0.000000      8.000000
  0.000000  0.285714  0.000000      4.000000
  0.142857  0.285714  0.000000      8.000000
  0.285714  0.285714  0.000000      8.000000
  0.428571  0.285714  0.000000      8.000000
  0.000000  0.428571  0.000000      4.000000
  0.142857  0.428571  0.000000      8.000000
  0.285714  0.428571  0.000000      8.000000
  0.428571  0.428571  0.000000      8.000000
  0.000000  0.142857  0.142857      4.000000
  0.142857  0.142857  0.142857      8.000000
  0.285714  0.142857  0.142857      8.000000
  0.428571  0.142857  0.142857      8.000000
  0.000000  0.285714  0.142857      8.000000
  0.142857  0.285714  0.142857     16.000000
  0.285714  0.285714  0.142857     16.000000
  0.428571  0.285714  0.142857     16.000000
  0.000000  0.428571  0.142857      8.000000
  0.142857  0.428571  0.142857     16.000000
  0.285714  0.428571  0.142857     16.000000
  0.428571  0.428571  0.142857     16.000000
[...]
 Maximum number of real-space cells 3x 3x 3
 Maximum number of reciprocal cells 3x 3x 3

--------------------------------------- Iteration      1(   1)  ---------------------------------------

 eigenvalue-minimisations  : 13440
 total energy-change (2. order) : 0.1067060E+04  (-0.5426838E+04)
 number of electron     128.0000000 magnetization       8.8000000
 augmentation part      128.0000000 magnetization       8.8000000

 Free energy of the ion-electron system (eV)
  alpha Z        PSCENC =       530.41185366
  Ewald energy   TEWEN  =     -9192.86165286
  -Hartree energ DENC   =     -3230.27578745
  -exchange      EXHF   =         0.00000000
  -V(xc)+E(xc)   XCENC  =        78.24625525
  PAW double counting   =     10320.96726947   -10647.99417394
  entropy T*S    EENTRO =        -0.00144576
  eigenvalues    EBANDS =      1979.10593237
  atomic energy  EATOM  =     11229.46195210
  Solvation  Ediel_sol  =         0.00000000
  free energy    TOTEN  =      1067.06020283 eV

  energy without entropy =     1067.06164859  energy(sigma->0) =     1067.06092571

[...]

 eigenvalue-minimisations  : 13440
 total energy-change (2. order) :-0.1065820E+04  (-0.1032672E+04)
 number of electron     128.0000000 magnetization       8.8000000
 augmentation part      128.0000000 magnetization       8.8000000

[...]

 Broyden mixing:
  rms(total) = 0.34583E+01    rms(broyden)= 0.34583E+01
  rms(prec ) = 0.53307E+01
  weight for this iteration     100.00

[...]

 eigenvalues of (default mixing * dielectric matrix)
  average eigenvalue GAMMA=   0.2244
  0.2244

[...]

 eigenvalue-minimisations  : 16112
 total energy-change (2. order) :-0.1569187E-03  (-0.9192263E-04)
 number of electron     127.9999751 magnetization       8.9195261
 augmentation part       67.7037273 magnetization       6.7206022

[...]

 Broyden mixing:
  rms(total) = 0.44236E-02    rms(broyden)= 0.44234E-02
  rms(prec ) = 0.63719E-02
  weight for this iteration     100.00

 eigenvalues of (default mixing * dielectric matrix)
  average eigenvalue GAMMA=   0.9508
  2.4634  2.4634  1.1605  1.1605  0.1868  0.2442  0.2871  0.7699  0.7699  0.7420
  0.5889  0.5728

[...]

--------------------------------------- Iteration      1(  18)  ---------------------------------------

 eigenvalue-minimisations  :  8881
 total energy-change (2. order) : 0.9387160E-05  (-0.2696089E-05)
 number of electron     127.9999751 magnetization       8.9203664
 augmentation part       67.6979161 magnetization       6.7252531

 Free energy of the ion-electron system (eV)
  alpha Z        PSCENC =       530.41185366
  Ewald energy   TEWEN  =     -9192.86165286
  -Hartree energ DENC   =     -3027.42926922
  -exchange      EXHF   =         0.00000000
  -V(xc)+E(xc)   XCENC  =        75.34260667
  PAW double counting   =     12860.66388580   -13205.08526526
  entropy T*S    EENTRO =        -0.00104867
  eigenvalues    EBANDS =       626.25659768
  atomic energy  EATOM  =     11229.46195210
  Solvation  Ediel_sol  =         0.00000000
  free energy    TOTEN  =      -103.24034009 eV

  energy without entropy =     -103.23929143  energy(sigma->0) =     -103.23981576

 average (electrostatic) potential at core
  the test charge radii are     0.9791  1.0210  1.4837
  (the norm of the test charge is              1.0000)
       1 -83.9095       2 -83.9095       3 -83.9095       4 -83.9095       5 -83.9095
       6 -83.9095       7 -83.9095       8 -83.9095       9 -42.4876      10 -42.6580
      11 -42.4876      12 -42.6580      13 -42.2708      14 -42.2708      15 -34.8163
      16 -34.8163

 E-fermi :   7.3579     XC(G=0): -12.2847     alpha+bet :-14.1025

 spin component 1

 k-point     1 :       0.0000    0.0000    0.0000
  band No.  band energies     occupation
      1      -2.0587      1.00000
      2       1.5458      1.00000
      3       1.8532      1.00000
      4       2.1439      1.00000
      5       2.2721      1.00000
      6       2.2721      1.00000
      7       2.8056      1.00000
      8       2.9944      1.00000
      9       2.9965      1.00000
     10       2.9965      1.00000
     11       3.0375      1.00000
     12       3.0484      1.00000
     13       3.1531      1.00000
     14       3.5144      1.00000
     15       3.8122      1.00000
     16       4.1297      1.00000
     17       4.1428      1.00000
     18       4.1428      1.00000
     19       4.3804      1.00000
     20       4.3804      1.00000
     21       4.4088      1.00000
     22       4.4996      1.00000
     23       4.4996      1.00000
     24       4.5249      1.00000
     25       4.7306      1.00000
     26       4.7306      1.00000
     27       4.8401      1.00000
     28       4.8794      1.00000
     29       4.8872      1.00000
     30       4.8872      1.00000
     31       5.1716      1.00000
     32       5.1937      1.00000
     33       5.3626      1.00000
     34       5.3626      1.00000
     35       5.3994      1.00000
     36       5.3994      1.00000
     37       5.4133      1.00000
     38       5.4133      1.00000
     39       5.4263      1.00000
     40       5.4514      1.00000
     41       5.5226      1.00000
     42       5.8721      1.00000
     43       5.9719      1.00000
     44       5.9781      1.00000
     45       6.0172      1.00000
     46       6.0308      1.00000
     47       6.0330      1.00000
     48       6.0702      1.00000
     49       6.1465      1.00000
     50       6.1465      1.00000
     51       6.3118      1.00000
     52       6.3281      1.00000
     53       6.3625      1.00000
     54       6.3625      1.00000
     55       6.3788      1.00000
     56       6.4038      1.00000
     57       6.4048      1.00000
     58       6.4596      1.00000
     59       6.4663      1.00000
     60       6.4663      1.00000
[...]
     70       6.9725      1.00000
     71       7.0535      1.00000
     72       7.0535      1.00000
     73       7.2490      1.00000
     74       7.9118      0.00000
     75       7.9118      0.00000
     76       7.9503      0.00000
     77       8.4444      0.00000
     78       8.4875      0.00000
     79       8.4875      0.00000
     80       8.6818      0.00000
     81       8.7834      0.00000
     82       8.9261      0.00000
     83       9.0985      0.00000
     84      10.9430      0.00000

[...]

 spin component 2

[...]

 k-point    40 :       0.4286    0.4286    0.4286
  band No.  band energies     occupation
      1      -0.3530      1.00000
      2       0.2147      1.00000
      3       1.4987      1.00000
      4       1.6635      1.00000
      5       2.0830      1.00000
      6       2.2109      1.00000
      7       2.3252      1.00000
      8       2.7106      1.00000
      9       3.7871      1.00000
     10       3.7917      1.00000
     11       3.9695      1.00000
     12       3.9850      1.00000
     13       4.1554      1.00000
     14       4.1801      1.00000
     15       4.2334      1.00000
     16       4.2447      1.00000
     17       4.2923      1.00000
     18       4.2979      1.00000
     19       4.7253      1.00000
     20       4.7678      1.00000
     21       4.7912      1.00000
     22       4.8146      1.00000
     23       4.8419      1.00000
     24       4.8883      1.00000
     25       4.9821      1.00000
     26       5.0028      1.00000
     27       5.1168      1.00000
     28       5.1263      1.00000
     29       5.1795      1.00000
     30       5.1903      1.00000
     31       5.2128      1.00000
     32       5.2703      1.00000
     33       5.3201      1.00000
     34       5.3566      1.00000
     35       5.4257      1.00000
     36       5.4360      1.00000
     37       5.5181      1.00000
     38       5.5282      1.00000
     39       5.5664      1.00000
     40       5.5766      1.00000
     41       5.6787      1.00000
     42       5.6816      1.00000
     43       5.7427      1.00000
     44       5.8180      1.00000
     45       5.9338      1.00000
     46       5.9461      1.00000
     47       5.9664      1.00000
     48       5.9713      1.00000
     49       6.0933      1.00000
     50       6.1009      1.00000
     51       6.2138      1.00000
     52       6.2407      1.00000
     53       6.3034      1.00000
     54       6.4329      1.00000
     55       6.5474      1.00000
     56       6.6241      1.00000
     57       6.6980      1.00000
     58       6.7944      1.00000
     59       7.8848      0.00000
     60       7.8857      0.00000
[...]
     70       8.6150      0.00000
     71       8.6153      0.00000
     72       8.6910      0.00000
     73       8.8102      0.00000
     74       8.8370      0.00000
     75       8.9357      0.00000
     76       8.9791      0.00000
     77       9.0146      0.00000
     78       9.1213      0.00000
     79      10.7485      0.00000
     80      11.3713      0.00000
     81      11.5354      0.00000
     82      11.9409      0.00000
     83      12.0669      0.00000
     84      12.3334      0.00000

 soft charge-density along one line, spin component           1
         0         1         2         3         4         5         6         7         8         9
 total charge-density along one line

 soft charge-density along one line, spin component           2
         0         1         2         3         4         5         6         7         8         9
 total charge-density along one line

------------------------ aborting loop because EDIFF is reached ----------------------------------------

 total charge

# of ion       s       p       d       tot
    1        0.476   0.423   8.386   9.285
    2        0.475   0.421   8.375   9.271
    3        0.474   0.425   8.373   9.272
    4        0.475   0.422   8.379   9.276
    5        0.475   0.422   8.379   9.276
    6        0.474   0.425   8.373   9.272
    7        0.475   0.421   8.375   9.271
    8        0.476   0.423   8.386   9.285
    9        0.324   0.311   4.946   5.581
   10        0.327   0.317   4.898   5.542
   11        0.331   0.324   4.894   5.549
   12        0.337   0.331   4.907   5.575
   13        0.353   0.362   4.966   5.681
   14        0.353   0.357   4.979   5.689
   15        1.234   1.671   0.288   3.193
   16        1.239   1.666   0.292   3.197
tot          8.297   8.722  97.195 114.214

 magnetization (x)

[...]

  FORCE on cell =-STRESS in cart. coord.  units (eV):
  Direction    XX          YY          ZZ          XY          YZ          ZX
  Alpha Z   530.41185   530.41185   530.41185
  Ewald   -2819.73488 -3186.57713 -3186.57713     0.00000    -0.00000    -0.00000
  Hartree  1241.77726   892.81867   892.81867    -0.00000    -0.00000    -0.00000
  E(xc)    -670.04112  -670.28252  -670.28252    -0.00000     0.00000     0.00000
  Local    -776.10639   -63.09657   -63.09657     0.00000    -0.00000     0.00000
  n-local  -147.71945  -148.44323  -145.24900     0.20039    -0.34890    -0.84778
  augment  1578.72357  1579.68781  1579.68781     0.00000    -0.00000     0.00000
  Kinetic  1060.57945  1054.06711  1071.33057     1.34100     0.92573     0.45488
  Fock        0.00000     0.00000     0.00000     0.00000     0.00000     0.00000
  Total      -2.10971    -1.18516    -1.18516     0.00000     0.00000     0.00000
  in kB     -15.93307    -8.95060    -8.95060     0.00000     0.00000     0.00000

 VOLUME and BASIS-vectors are now :
  energy-cutoff  :      550.00
  volume of cell :      212.15
      direct lattice vectors                 reciprocal lattice vectors
     5.964097189  0.000000000  0.000000000     0.167669971  0.000000000  0.000000000
     0.000000000  5.964097189  0.000000000     0.000000000  0.167669971  0.000000000
     0.000000000  0.000000000  5.964097189     0.000000000  0.000000000  0.167669971

  length of vectors
     5.964097189  5.964097189  5.964097189     0.167669971  0.167669971  0.167669971

 FORCES acting on ions
    electron-ion (+dipol)            ewald-force                    non-local-force                 convergence-correction
   -.106E-06 0.159E+03 0.159E+03   0.426E-13 -.157E+03 -.157E+03   0.000E+00 -.229E+01 -.229E+01   -.759E-14 -.196E-02 -.196E-02
   0.106E-06 0.159E+03 0.159E+03   0.426E-13 -.157E+03 -.157E+03   -.347E-17 -.229E+01 -.229E+01   0.108E-12 -.196E-02 -.196E-02
   0.174E-06 -.159E+03 0.159E+03   0.000E+00 0.157E+03 -.157E+03   0.208E-16 0.229E+01 -.229E+01   -.356E-13 0.196E-02 -.196E-02
   -.174E-06 -.159E+03 0.159E+03   0.000E+00 0.157E+03 -.157E+03   -.434E-17 0.229E+01 -.229E+01   0.109E-12 0.196E-02 -.196E-02
   0.174E-06 0.159E+03 -.159E+03   0.284E-13 -.157E+03 0.157E+03   -.954E-17 -.229E+01 0.229E+01   -.612E-13 -.196E-02 0.196E-02
   -.174E-06 0.159E+03 -.159E+03   0.426E-13 -.157E+03 0.157E+03   -.694E-17 -.229E+01 0.229E+01   0.933E-13 -.196E-02 0.196E-02
   -.106E-06 -.159E+03 -.159E+03   -.284E-13 0.157E+03 0.157E+03   0.347E-17 0.229E+01 0.229E+01   -.942E-13 0.196E-02 0.196E-02
   0.106E-06 -.159E+03 -.159E+03   -.284E-13 0.157E+03 0.157E+03   -.694E-17 0.229E+01 0.229E+01   0.794E-13 0.196E-02 0.196E-02
   0.226E-12 0.151E-11 0.127E-11   0.114E-12 -.580E-13 0.693E-13   0.000E+00 0.000E+00 0.000E+00   -.251E-13 -.766E-13 0.329E-13
   -.627E-13 0.232E-12 -.382E-13   0.117E-12 -.122E-14 0.694E-13   0.000E+00 0.000E+00 0.000E+00   0.454E-14 -.617E-13 0.354E-13
   -.545E-13 -.597E-13 0.202E-12   0.107E-12 -.319E-13 0.108E-13   0.000E+00 0.000E+00 0.000E+00   0.339E-13 0.513E-13 -.156E-13
   0.221E-12 -.574E-13 0.262E-11   0.102E-12 -.319E-13 -.460E-13   0.000E+00 0.000E+00 0.000E+00   -.446E-13 0.575E-13 -.562E-13
   0.213E-12 0.369E-12 0.116E-11   -.270E-12 0.104E-12 -.129E-13   0.000E+00 0.000E+00 0.000E+00   -.332E-13 -.434E-13 -.560E-13
   -.769E-13 0.230E-12 0.185E-12   -.267E-12 0.104E-12 0.440E-13   0.000E+00 0.000E+00 0.000E+00   0.229E-13 -.371E-13 -.364E-13
   -.147E-13 -.164E-13 -.265E-14   -.172E-14 -.166E-15 0.181E-13   0.000E+00 0.000E+00 0.000E+00   0.805E-14 0.191E-13 0.104E-13
   -.982E-14 0.292E-13 0.552E-12   0.587E-15 -.149E-15 0.383E-14   0.000E+00 0.000E+00 0.000E+00   -.913E-14 0.213E-13 0.139E-13
   0.991E-11 0.434E-11 0.628E-11   0.409E-15 0.854E-13 0.128E-12   -.694E-17 0.000E+00 0.444E-15   0.149E-12 0.173E-12 -.478E-12

 POSITION                                       TOTAL-FORCE (eV/Angst)
      1.49102      1.58649      1.58649        -0.000000      0.002401      0.002401
      4.47307      1.58649      1.58649         0.000000      0.002401      0.002401
      1.49102      4.37761      1.58649         0.000000     -0.002401      0.002401
      4.47307      4.37761      1.58649        -0.000000     -0.002401      0.002401
      1.49102      1.58649      4.37761         0.000000      0.002401     -0.002401
      4.47307      1.58649      4.37761         0.000000      0.002401     -0.002401
      1.49102      4.37761      4.37761         0.000000     -0.002401     -0.002401
      4.47307      4.37761      4.37761        -0.000000     -0.002401     -0.002401
      2.98205      2.98205      0.00000         0.000000      0.000000     -0.000000
      0.00000      2.98205      0.00000         0.000000      0.000000     -0.000000
      0.00000      0.00000      2.98205         0.000000      0.000000     -0.000000
      2.98205      0.00000      2.98205         0.000000      0.000000     -0.000000
      2.98205      2.98205      2.98205         0.000000      0.000000     -0.000000
      0.00000      2.98205      2.98205         0.000000      0.000000     -0.000000
      0.00000      0.00000      0.00000         0.000000      0.000000     -0.000000
      2.98205      0.00000      0.00000         0.000000      0.000000     -0.000000
    total drift:                                0.000000      0.000000      0.000000

  FREE ENERGIE OF THE ION-ELECTRON SYSTEM (eV)
  free  energy   TOTEN  =      -103.24034009 eV

  energy  without entropy=     -103.23929143  energy(sigma->0) =     -103.23981576

 reached required accuracy - stopping structural energy minimisation

 total charge

[...]

 magnetization (x)

# of ion       s       p       d       tot
    1       -0.007  -0.003   0.261   0.251
    2       -0.008  -0.004   0.247   0.235
    3       -0.006   0.002   0.276   0.273
    4       -0.007  -0.005   0.236   0.224
    5       -0.007  -0.005   0.236   0.224
    6       -0.006   0.002   0.276   0.273
    7       -0.008  -0.004   0.247   0.235
    8       -0.007  -0.003   0.261   0.251
    9        0.026   0.042   3.545   3.612
   10       -0.034  -0.061  -3.443  -3.538
   11        0.027   0.033   3.575   3.635
   12       -0.032  -0.064  -3.510  -3.606
   13        0.022   0.034   3.305   3.360
   14        0.025   0.012   3.300   3.336
   15       -0.002   0.054  -0.006   0.047
   16       -0.015  -0.015   0.003  -0.027
tot         -0.040   0.014   8.810   8.784