 vasp.5.4.4.18Apr17-6-g9f103f2a35 (build May 21 2018 20:56:50) complex
 executed on             LinuxGNU date 2021.10.15  15:42:50

 INCAR:
 POTCAR:    PAW_PBE Ni 02Aug2007
 POTCAR:    PAW_PBE Mn 06Sep2000
 POTCAR:    PAW_PBE In 08Apr2002

 POTCAR:    PAW_PBE Ni 02Aug2007
   VRHFIN =Ni:

   TITEL  = PAW_PBE Ni 02Aug2007
   POMASS =   58.690; ZVAL   =   10.000    mass and valenz
   ENMAX  =  269.532; ENMIN  =  202.149 eV

 POTCAR:    PAW_PBE Mn 06Sep2000
   VRHFIN =Mn: d6 s1

   TITEL  = PAW_PBE Mn 06Sep2000
   POMASS =   54.938; ZVAL   =    7.000    mass and valenz
   ENMAX  =  269.864; ENMIN  =  202.398 eV

 POTCAR:    PAW_PBE In 08Apr2002
   VRHFIN =In: s2p1

   TITEL  = PAW_PBE In 08Apr2002
   POMASS =  114.820; ZVAL   =    3.000    mass and valenz
   ENMAX  =   95.934; ENMIN  =   71.951 eV

 Optimization of the real space projectors (new method)

 maximal supplied QI-value         = 16.25
 optimisation between [QCUT,QGAM] = [ 11.86, 23.89] = [ 39.41,159.82] Ry
 Optimized for a Real-space Cutoff    1.33 Angstroem

   l    n(q)    QCUT    max X(q) W(low)/X(q) W(high)/X(q)  e(spline)
   2      9    11.864    60.317    0.21E-03    0.51E-03    0.25E-06
   2      9    11.864    55.921    0.21E-03    0.51E-03    0.26E-06
   0      9    11.864    51.690    0.22E-03    0.30E-04    0.17E-06
   0      9    11.864    30.015    0.20E-03    0.28E-04    0.15E-06
   1      9    11.864    18.849    0.76E-04    0.33E-03    0.17E-06
   1      9    11.864    14.624    0.60E-04    0.28E-03    0.15E-06
 Optimization of the real space projectors (new method)

[...]

   l    n(q)    QCUT    max X(q) W(low)/X(q) W(high)/X(q)  e(spline)
   2      9    11.864   110.144    0.49E-03    0.50E-03    0.21E-06
   2      9    11.864   103.200    0.49E-03    0.51E-03    0.22E-06
   0     10    11.864    68.437    0.12E-03    0.41E-04    0.21E-06
   0     10    11.864    33.971    0.11E-03    0.36E-04    0.19E-06
   1      9    11.864    17.065    0.24E-03    0.26E-03    0.93E-07
   1      9    11.864    12.540    0.19E-03    0.20E-03    0.80E-07
 Optimization of the real space projectors (new method)

 maximal supplied QI-value         = 12.09
 optimisation between [QCUT,QGAM] = [ 11.97, 23.95] = [ 40.14,160.58] Ry
 Optimized for a Real-space Cutoff    1.63 Angstroem

   l    n(q)    QCUT    max X(q) W(low)/X(q) W(high)/X(q)  e(spline)
   0     12    11.973   106.980    0.33E-03    0.16E-03    0.25E-05
   0     12    11.973    81.086    0.37E-03    0.18E-03    0.28E-05
   1     11    11.973    53.097    0.22E-03    0.42E-03    0.40E-05
   1     11    11.973    32.621    0.20E-03    0.40E-03    0.37E-05
   2     11    11.973     8.820    0.30E-03    0.17E-03    0.41E-06
  PAW_PBE Ni 02Aug2007                  :
  PAW_PBE Mn 06Sep2000                  :
  PAW_PBE In 08Apr2002                  :

 POSCAR: Ni2MnIn
  positions in direct lattice
  velocities in cartesian coordinates
 exchange correlation table for  LEXCH =        8
   RHO(1)=    0.500       N(1)  =     2000
   RHO(2)=  100.500       N(2)  =     4000

 ion  position               nearest neighbor table
   1  0.250  0.253  0.269-  14 2.50  13 2.51  11 2.52  12 2.53  10 2.64  16 2.64  15 2.65   9 2.66
                             5 2.75   3 2.95   2 2.97   2 2.98   3 3.01
   2  0.750  0.253  0.269-  14 2.50  13 2.51  11 2.52  12 2.53  10 2.64  16 2.64  15 2.65   9 2.66
                             6 2.75   4 2.95   1 2.97   1 2.98   4 3.01
   3  0.250  0.747  0.269-  14 2.50  13 2.51  11 2.52  12 2.53  10 2.64  16 2.64  15 2.65   9 2.66
                             7 2.75   1 2.95   4 2.97   4 2.98   1 3.01
   4  0.750  0.747  0.269-  14 2.50  13 2.51  11 2.52  12 2.53  10 2.64  16 2.64  15 2.65   9 2.66
                             8 2.75   2 2.95   3 2.97   3 2.98   2 3.01
   5  0.250  0.253  0.731-  14 2.50  13 2.51  11 2.52  12 2.53  10 2.64  16 2.64  15 2.65   9 2.66
                             1 2.75   7 2.95   6 2.97   6 2.98   7 3.01
   6  0.750  0.253  0.731-  14 2.50  13 2.51  11 2.52  12 2.53  10 2.64  16 2.64  15 2.65   9 2.66
                             2 2.75   8 2.95   5 2.97   5 2.98   8 3.01
   7  0.250  0.747  0.731-  14 2.50  13 2.51  11 2.52  12 2.53  10 2.64  16 2.64  15 2.65   9 2.66
                             3 2.75   5 2.95   8 2.97   8 2.98   5 3.01
   8  0.750  0.747  0.731-  14 2.50  13 2.51  11 2.52  12 2.53  10 2.64  16 2.64  15 2.65   9 2.66
                             4 2.75   6 2.95   7 2.97   7 2.98   6 3.01
   9  0.500  0.000  0.000-   1 2.66   2 2.66   3 2.66   4 2.66   5 2.66   6 2.66   7 2.66   8 2.66
                            12 2.98  15 2.98  16 2.98  12 2.98  16 2.98  15 2.98
  10  0.000  0.500  0.000-   1 2.64   2 2.64   3 2.64   4 2.64   5 2.64   6 2.64   7 2.64   8 2.64
                            14 2.98  15 2.98  16 2.98  14 2.98  15 2.98  16 2.98
  11  0.000  0.000  0.500-   1 2.52   2 2.52   3 2.52   4 2.52   5 2.52   6 2.52   7 2.52   8 2.52
                            12 2.98  14 2.98  15 2.98  15 2.98  14 2.98  12 2.98
  12  0.500  0.000  0.500-   1 2.53   2 2.53   3 2.53   4 2.53   5 2.53   6 2.53   7 2.53   8 2.53
                             9 2.98  11 2.98  13 2.98   9 2.98  13 2.98  11 2.98
  13  0.500  0.500  0.500-   1 2.51   2 2.51   3 2.51   4 2.51   5 2.51   6 2.51   7 2.51   8 2.51
                            12 2.98  14 2.98  16 2.98  16 2.98  12 2.98  14 2.98
  14  0.000  0.500  0.500-   1 2.50   2 2.50   3 2.50   4 2.50   5 2.50   6 2.50   7 2.50   8 2.50
                            10 2.98  11 2.98  13 2.98  10 2.98  11 2.98  13 2.98
  15  0.000  0.000  0.000-   1 2.65   2 2.65   3 2.65   4 2.65   5 2.65   6 2.65   7 2.65   8 2.65
                             9 2.98  10 2.98  11 2.98  11 2.98  10 2.98   9 2.98
  16  0.500  0.500  0.000-   1 2.64   2 2.64   3 2.64   4 2.64   5 2.64   6 2.64   7 2.64   8 2.64
                             9 2.98  10 2.98  13 2.98  13 2.98   9 2.98  10 2.98

  LATTYP: Found a simple cubic cell.
 ALAT       =     5.9558269663

  Lattice vectors:

 A1 = (   5.9558269663,   0.0000000000,   0.0000000000)
 A2 = (   0.0000000000,   5.9558269663,   0.0000000000)
 A3 = (   0.0000000000,   0.0000000000,   5.9558269663)

Analysis of symmetry for initial positions (statically):
 Subroutine PRICEL returns:
 Original cell was already a primitive cell.

 Routine SETGRP: Setting up the symmetry group for a
 simple cubic supercell.

 Subroutine GETGRP returns: Found  8 space group operations
 (whereof  8 operations were pure point group operations)
 out of a pool of 48 trial point group operations.

The static configuration has the point symmetry D_2h.

Analysis of symmetry for dynamics (positions and initial velocities):
 Subroutine PRICEL returns:
 Original cell was already a primitive cell.

[...]

The dynamic configuration has the point symmetry D_2h.

Analysis of structural, dynamic, and magnetic symmetry:
 Subroutine PRICEL returns:
 Original cell was already a primitive cell.

 Routine SETGRP: Setting up the symmetry group for a
 simple cubic supercell.

 Subroutine GETGRP returns: Found  8 space group operations
 (whereof  8 operations were pure point group operations)
 out of a pool of 48 trial point group operations.

The magnetic configuration has the point symmetry D_2h.

 Subroutine INISYM returns: Found  8 space group operations
 (whereof  8 operations are pure point group operations),
 and found     1 'primitive' translations

 KPOINTS: k-points

Automatic generation of k-mesh.
Space group operators:
 irot       det(A)        alpha          n_x          n_y          n_z        tau_x        tau_y        tau_z
    1     1.000000     0.000000     1.000000     0.000000     0.000000     0.000000     0.000000     0.000000
    2    -1.000000     0.000000     1.000000     0.000000     0.000000     0.000000     0.000000     0.000000
    3     1.000000   180.000000     0.000000     0.000000     1.000000     0.000000     0.000000     0.000000
    4    -1.000000   180.000000     0.000000     0.000000     1.000000     0.000000     0.000000     0.000000
    5     1.000000   180.000000     1.000000     0.000000     0.000000     0.000000     0.000000     0.000000
    6    -1.000000   180.000000     1.000000     0.000000     0.000000     0.000000     0.000000     0.000000
    7     1.000000   180.000000     0.000000     1.000000     0.000000     0.000000     0.000000     0.000000
    8    -1.000000   180.000000     0.000000     1.000000     0.000000     0.000000     0.000000     0.000000

 Subroutine IBZKPT returns following result:

 Found     64 irreducible k-points:

 Following reciprocal coordinates:
            Coordinates               Weight
  0.000000  0.000000  0.000000      1.000000
  0.142857  0.000000  0.000000      2.000000
  0.285714  0.000000  0.000000      2.000000
  0.428571  0.000000  0.000000      2.000000
  0.000000  0.142857  0.000000      2.000000
  0.142857  0.142857  0.000000      4.000000
  0.285714  0.142857  0.000000      4.000000
  0.428571  0.142857  0.000000      4.000000
  0.000000  0.285714  0.000000      2.000000
  0.142857  0.285714  0.000000      4.000000
  0.285714  0.285714  0.000000      4.000000
  0.428571  0.285714  0.000000      4.000000
  0.000000  0.428571  0.000000      2.000000
  0.142857  0.428571  0.000000      4.000000
  0.285714  0.428571  0.000000      4.000000
  0.428571  0.428571  0.000000      4.000000
  0.000000  0.000000  0.142857      2.000000
  0.142857  0.000000  0.142857      4.000000
  0.285714  0.000000  0.142857      4.000000
  0.428571  0.000000  0.142857      4.000000
  0.000000  0.142857  0.142857      4.000000
  0.142857  0.142857  0.142857      8.000000
  0.285714  0.142857  0.142857      8.000000
  0.428571  0.142857  0.142857      8.000000
  0.000000  0.285714  0.142857      4.000000
  0.142857  0.285714  0.142857      8.000000
  0.285714  0.285714  0.142857      8.000000
  0.428571  0.285714  0.142857      8.000000
  0.000000  0.428571  0.142857      4.000000
  0.142857  0.428571  0.142857      8.000000
  0.285714  0.428571  0.142857      8.000000
  0.428571  0.428571  0.142857      8.000000
  0.000000  0.000000  0.285714      2.000000
  0.142857  0.000000  0.285714      4.000000
  0.285714  0.000000  0.285714      4.000000
  0.428571  0.000000  0.285714      4.000000
  0.000000  0.142857  0.285714      4.000000
  0.142857  0.142857  0.285714      8.000000
  0.285714  0.142857  0.285714      8.000000
  0.428571  0.142857  0.285714      8.000000
  0.000000  0.285714  0.285714      4.000000
  0.142857  0.285714  0.285714      8.000000
  0.285714  0.285714  0.285714      8.000000
  0.428571  0.285714  0.285714      8.000000
  0.000000  0.428571  0.285714      4.000000
  0.142857  0.428571  0.285714      8.000000
  0.285714  0.428571  0.285714      8.000000
  0.428571  0.428571  0.285714      8.000000
  0.000000  0.000000  0.428571      2.000000
  0.142857  0.000000  0.428571      4.000000
  0.285714  0.000000  0.428571      4.000000
  0.428571  0.000000  0.428571      4.000000
  0.000000  0.142857  0.428571      4.000000
  0.142857  0.142857  0.428571      8.000000
  0.285714  0.142857  0.428571      8.000000
  0.428571  0.142857  0.428571      8.000000
  0.000000  0.285714  0.428571      4.000000
[...]
  in kB     -12.02250     0.38200    -4.69123     0.00000     0.00000     0.00000

 VOLUME and BASIS-vectors are now :
  energy-cutoff  :      550.00
  volume of cell :      211.26
      direct lattice vectors                 reciprocal lattice vectors
     5.955826966  0.000000000  0.000000000     0.167902796  0.000000000  0.000000000
     0.000000000  5.955826966  0.000000000     0.000000000  0.167902796  0.000000000
     0.000000000  0.000000000  5.955826966     0.000000000  0.000000000  0.167902796

[...]

 FORCES acting on ions
    electron-ion (+dipol)            ewald-force                    non-local-force                 convergence-correction
   -.256E+01 0.145E+02 0.180E+03   0.251E+01 -.146E+02 -.177E+03   0.221E-01 0.737E-01 -.257E+01   0.939E-02 -.223E-01 0.107E-01
   0.256E+01 0.145E+02 0.180E+03   -.251E+01 -.146E+02 -.177E+03   -.221E-01 0.737E-01 -.257E+01   -.939E-02 -.223E-01 0.107E-01
   -.256E+01 -.145E+02 0.180E+03   0.251E+01 0.146E+02 -.177E+03   0.221E-01 -.737E-01 -.257E+01   0.939E-02 0.223E-01 0.107E-01
   0.256E+01 -.145E+02 0.180E+03   -.251E+01 0.146E+02 -.177E+03   -.221E-01 -.737E-01 -.257E+01   -.939E-02 0.223E-01 0.107E-01
   -.256E+01 0.145E+02 -.180E+03   0.251E+01 -.146E+02 0.177E+03   0.221E-01 0.737E-01 0.257E+01   0.939E-02 -.223E-01 -.107E-01
   0.256E+01 0.145E+02 -.180E+03   -.251E+01 -.146E+02 0.177E+03   -.221E-01 0.737E-01 0.257E+01   -.939E-02 -.223E-01 -.107E-01
   -.256E+01 -.145E+02 -.180E+03   0.251E+01 0.146E+02 0.177E+03   0.221E-01 -.737E-01 0.257E+01   0.939E-02 0.223E-01 -.107E-01
   0.256E+01 -.145E+02 -.180E+03   -.251E+01 0.146E+02 0.177E+03   -.221E-01 -.737E-01 0.257E+01   -.939E-02 0.223E-01 -.107E-01
   0.253E-12 0.197E-13 -.625E-12   -.280E-13 0.598E-15 -.381E-13   0.000E+00 0.000E+00 0.000E+00   -.642E-13 0.175E-13 0.672E-13
   -.414E-13 0.207E-12 -.442E-13   -.722E-13 0.883E-14 -.256E-14   0.000E+00 0.000E+00 0.000E+00   0.276E-13 -.225E-13 0.268E-13
   -.510E-13 -.434E-13 0.200E-12   -.747E-13 0.292E-13 0.109E-14   0.000E+00 0.000E+00 0.000E+00   0.507E-13 0.273E-13 -.493E-13
   0.244E-12 -.274E-13 0.160E-11   0.117E-12 0.868E-13 -.681E-13   0.000E+00 0.000E+00 0.000E+00   -.703E-13 0.349E-13 -.487E-13
   0.237E-12 0.223E-12 0.949E-12   -.156E-12 0.542E-13 0.961E-15   0.000E+00 0.000E+00 0.000E+00   -.553E-13 -.314E-13 -.471E-13
   -.526E-13 0.195E-12 0.199E-12   0.102E-12 -.445E-13 0.597E-13   0.000E+00 0.000E+00 0.000E+00   0.447E-13 -.198E-13 -.387E-13
   -.141E-13 -.158E-13 -.630E-14   0.406E-13 0.573E-14 0.921E-14   0.000E+00 0.000E+00 0.000E+00   0.166E-13 0.694E-14 0.160E-13
   0.132E-13 -.479E-12 -.188E-15   -.118E-13 -.145E-15 -.500E-14   0.000E+00 0.000E+00 0.000E+00   -.141E-13 -.649E-14 0.155E-13
   0.142E-10 0.746E-11 0.597E-10   -.114E-14 0.342E-13 0.425E-13   0.000E+00 0.000E+00 -.888E-15   0.108E-12 0.169E-12 -.390E-12

 POSITION                                       TOTAL-FORCE (eV/Angst)
      1.48708      1.50500      1.60211        -0.019417      0.004219      0.000437
      4.46875      1.50500      1.60211         0.019417      0.004219      0.000437
      1.48708      4.45083      1.60211        -0.019417     -0.004219      0.000437
      4.46875      4.45083      1.60211         0.019417     -0.004219      0.000437
      1.48708      1.50500      4.35371        -0.019417      0.004219     -0.000437
      4.46875      1.50500      4.35371         0.019417      0.004219     -0.000437
      1.48708      4.45083      4.35371        -0.019417     -0.004219     -0.000437
      4.46875      4.45083      4.35371         0.019417     -0.004219     -0.000437
      2.97791      0.00000      0.00000         0.000000      0.000000      0.000000
      0.00000      2.97791      0.00000         0.000000      0.000000      0.000000
      0.00000      0.00000      2.97791         0.000000      0.000000      0.000000
      2.97791      0.00000      2.97791         0.000000      0.000000      0.000000
      2.97791      2.97791      2.97791         0.000000      0.000000      0.000000
      0.00000      2.97791      2.97791         0.000000      0.000000      0.000000
      0.00000      0.00000      0.00000         0.000000      0.000000      0.000000
      2.97791      2.97791      0.00000         0.000000      0.000000      0.000000
    total drift:                                0.000000      0.000000      0.000000

  FREE ENERGIE OF THE ION-ELECTRON SYSTEM (eV)
  free  energy   TOTEN  =      -103.28148632 eV

  energy  without entropy=     -103.27930729  energy(sigma->0) =     -103.28039680

[...]

 d Force = 0.1283563E-03[ 0.104E-03, 0.152E-03]  d Energy = 0.1377286E-03-0.937E-05
 d Force =-0.7586278E-01[-0.793E-01,-0.725E-01]  d Ewald  =-0.7586277E-01-0.106E-07

 Steepest descent step on ions:
 trial-energy change:   -0.000138  1 .order   -0.000128   -0.000152   -0.000104
  (g-gl).g = 0.152E-03      g.g   = 0.152E-03  gl.gl    = 0.000E+00
 g(Force)  = 0.152E-03   g(Stress)= 0.000E+00 ortho     = 0.000E+00
 gamma     =   0.00000
 trial     =   1.00000
 opt step  =   3.16345  (harmonic =   3.16345) maximal distance =0.00296329
 next E    =  -103.281727   (d E  =  -0.00024)

[...]

 eigenvalue-minimisations  : 22782
 total energy-change (2. order) : 0.2680451E-03  (-0.5736385E-04)
 number of electron     128.0000112 magnetization       9.2801564
 augmentation part       67.7357276 magnetization       6.8368397

 Broyden mixing:
  rms(total) = 0.65184E-02    rms(broyden)= 0.65181E-02
  rms(prec ) = 0.76129E-02
  weight for this iteration     100.00

 eigenvalues of (default mixing * dielectric matrix)
  average eigenvalue GAMMA=   0.3975
  0.5272  0.2678

[...]

--------------------------------------- Iteration      3(   4)  ---------------------------------------

 eigenvalue-minimisations  : 19714
 total energy-change (2. order) :-0.3182116E-05  (-0.8777408E-05)
 number of electron     128.0000112 magnetization       9.2801564
 augmentation part       67.7357276 magnetization       6.8368397

 Free energy of the ion-electron system (eV)
  alpha Z        PSCENC =       532.62450265
  Ewald energy   TEWEN  =     -9286.10216987
  -Hartree energ DENC   =     -2940.32070359
  -exchange      EXHF   =         0.00000000
  -V(xc)+E(xc)   XCENC  =        75.55800689
  PAW double counting   =     12921.31760601   -13265.73491252
  entropy T*S    EENTRO =        -0.00217050
  eigenvalues    EBANDS =       629.91606195
  atomic energy  EATOM  =     11229.46195210
  Solvation  Ediel_sol  =         0.00000000
  free energy    TOTEN  =      -103.28182689 eV

  energy without entropy =     -103.27965639  energy(sigma->0) =     -103.28074164

 average (electrostatic) potential at core
  the test charge radii are     0.9791  1.0210  1.4837
  (the norm of the test charge is              1.0000)
       1 -83.8927       2 -83.8927       3 -83.8927       4 -83.8927       5 -83.8927
       6 -83.8927       7 -83.8927       8 -83.8927       9 -42.4470      10 -42.4994
      11 -42.5336      12 -42.5096      13 -42.2543      14 -42.1735      15 -34.5683
      16 -34.5954

 E-fermi :   7.3888     XC(G=0): -12.3042     alpha+bet :-14.1613

[...]

 spin component 2

[...]

 k-point    64 :       0.4286    0.4286    0.4286
  band No.  band energies     occupation
      1       0.0323      1.00000
      2       0.2452      1.00000
      3       1.5367      1.00000
      4       1.6159      1.00000
      5       1.8439      1.00000
      6       1.8966      1.00000
      7       2.5598      1.00000
      8       2.7867      1.00000
      9       3.7589      1.00000
     10       3.8006      1.00000
     11       3.9637      1.00000
     12       4.0951      1.00000
     13       4.1884      1.00000
     14       4.2006      1.00000
     15       4.3601      1.00000
     16       4.3746      1.00000
     17       4.4284      1.00000
     18       4.4366      1.00000
     19       4.6117      1.00000
     20       4.6941      1.00000
     21       4.8604      1.00000
     22       4.8703      1.00000
     23       4.9452      1.00000
     24       4.9704      1.00000
     25       5.0163      1.00000
     26       5.0602      1.00000
     27       5.1148      1.00000
     28       5.2352      1.00000
     29       5.2433      1.00000
     30       5.3127      1.00000
     31       5.3231      1.00000
     32       5.3624      1.00000
     33       5.3816      1.00000
     34       5.4193      1.00000
     35       5.4507      1.00000
     36       5.4785      1.00000
     37       5.4872      1.00000
     38       5.4987      1.00000
     39       5.5609      1.00000
     40       5.6052      1.00000
     41       5.6167      1.00000
     42       5.6564      1.00000
     43       5.8029      1.00000
     44       5.8231      1.00000
     45       5.8490      1.00000
     46       5.8896      1.00000
     47       6.0659      1.00000
     48       6.0878      1.00000
     49       6.1417      1.00000
     50       6.2465      1.00000
     51       6.2607      1.00000
     52       6.3714      1.00000
     53       6.4262      1.00000
     54       6.5693      1.00000
     55       6.6035      1.00000
     56       6.6382      1.00000
     57       6.7322      1.00000
     58       6.7489      1.00000
     59       7.9671      0.00000
     60       7.9988      0.00000
[...]
     70       8.5895      0.00000
     71       8.5985      0.00000
     72       8.7408      0.00000
     73       8.7763      0.00000
     74       8.8426      0.00000
     75       8.9159      0.00000
     76       8.9789      0.00000
     77       9.0723      0.00000
     78       9.1585      0.00000
     79      11.0209      0.00000
     80      11.6387      0.00000
     81      11.8066      0.00000
     82      11.8598      0.00000
     83      11.9579      0.00000
     84      12.1841      0.00000

[...]

 soft charge-density along one line, spin component           2
         0         1         2         3         4         5         6         7         8         9
 total charge-density along one line

------------------------ aborting loop because EDIFF is reached ----------------------------------------

[...]

  FORCE on cell =-STRESS in cart. coord.  units (eV):
  Direction    XX          YY          ZZ          XY          YZ          ZX
  Alpha Z   532.62450   532.62450   532.62450
  Ewald   -2970.00547 -2971.84293 -3344.28232     0.00000    -0.00000    -0.00000
  Hartree  1096.06052  1095.37393   749.07194    -0.00000    -0.00000    -0.00000
  E(xc)    -670.75134  -670.75012  -670.88058     0.00000    -0.00000     0.00000
  Local    -483.39706  -482.78771   238.58931     0.00000    -0.00000     0.00000
  n-local  -147.21154  -147.53632  -146.96698    -0.20376    -0.26402    -0.19030
  augment  1578.58075  1580.71941  1578.54218    -0.00000     0.00000     0.00000
  Kinetic  1062.70712  1064.46503  1062.92264     1.12710     1.09264     0.51767
  Fock        0.00000     0.00000     0.00000     0.00000     0.00000     0.00000
  Total      -1.39251     0.26580    -0.37931     0.00000     0.00000     0.00000
  in kB     -10.56047     2.01579    -2.87658     0.00000     0.00000     0.00000

 VOLUME and BASIS-vectors are now :
  energy-cutoff  :      550.00
  volume of cell :      211.26
      direct lattice vectors                 reciprocal lattice vectors
     5.955826966  0.000000000  0.000000000     0.167902796  0.000000000  0.000000000
     0.000000000  5.955826966  0.000000000     0.000000000  0.167902796  0.000000000
     0.000000000  0.000000000  5.955826966     0.000000000  0.000000000  0.167902796

  length of vectors
     5.955826966  5.955826966  5.955826966     0.167902796  0.167902796  0.167902796

 FORCES acting on ions
    electron-ion (+dipol)            ewald-force                    non-local-force                 convergence-correction
   -.526E+01 0.153E+02 0.180E+03   0.522E+01 -.153E+02 -.178E+03   0.758E-01 0.519E-01 -.258E+01   -.397E-01 -.422E-01 0.250E-01
   0.526E+01 0.153E+02 0.180E+03   -.522E+01 -.153E+02 -.178E+03   -.758E-01 0.519E-01 -.258E+01   0.397E-01 -.422E-01 0.250E-01
   -.526E+01 -.153E+02 0.180E+03   0.522E+01 0.153E+02 -.178E+03   0.758E-01 -.519E-01 -.258E+01   -.397E-01 0.422E-01 0.250E-01
   0.526E+01 -.153E+02 0.180E+03   -.522E+01 0.153E+02 -.178E+03   -.758E-01 -.519E-01 -.258E+01   0.397E-01 0.422E-01 0.250E-01
   -.526E+01 0.153E+02 -.180E+03   0.522E+01 -.153E+02 0.178E+03   0.758E-01 0.519E-01 0.258E+01   -.397E-01 -.422E-01 -.250E-01
   0.526E+01 0.153E+02 -.180E+03   -.522E+01 -.153E+02 0.178E+03   -.758E-01 0.519E-01 0.258E+01   0.397E-01 -.422E-01 -.250E-01
   -.526E+01 -.153E+02 -.180E+03   0.522E+01 0.153E+02 0.178E+03   0.758E-01 -.519E-01 0.258E+01   -.397E-01 0.422E-01 -.250E-01
   0.526E+01 -.153E+02 -.180E+03   -.522E+01 0.153E+02 0.178E+03   -.758E-01 -.519E-01 0.258E+01   0.397E-01 0.422E-01 -.250E-01
   0.226E-12 0.375E-14 -.691E-12   -.209E-13 -.651E-14 0.117E-13   0.000E+00 0.000E+00 0.000E+00   -.783E-12 0.595E-12 -.103E-11
   -.243E-13 0.206E-12 -.121E-12   -.116E-14 -.267E-13 -.168E-13   0.000E+00 0.000E+00 0.000E+00   -.162E-11 -.405E-12 -.423E-12
   -.202E-13 -.540E-13 0.203E-12   -.463E-13 0.746E-15 0.437E-13   0.000E+00 0.000E+00 0.000E+00   0.140E-11 -.334E-12 0.308E-15
   0.219E-12 -.392E-13 0.160E-11   0.890E-13 0.158E-13 0.172E-13   0.000E+00 0.000E+00 0.000E+00   -.141E-11 -.344E-12 -.158E-14
   0.212E-12 0.229E-12 0.951E-12   -.563E-13 -.102E-12 0.152E-13   0.000E+00 0.000E+00 0.000E+00   0.771E-12 0.572E-12 -.545E-12
   -.275E-13 0.202E-12 0.190E-12   -.405E-13 0.550E-13 -.398E-13   0.000E+00 0.000E+00 0.000E+00   -.784E-12 0.588E-12 -.520E-12
   -.115E-13 -.149E-13 -.463E-13   -.203E-14 0.164E-13 -.121E-13   0.000E+00 0.000E+00 0.000E+00   0.220E-12 0.143E-12 -.218E-12
   0.246E-13 -.478E-12 -.326E-13   -.821E-14 0.696E-14 -.145E-14   0.000E+00 0.000E+00 0.000E+00   0.303E-12 -.101E-12 -.830E-13
   0.952E-11 0.361E-10 -.116E-09   0.596E-14 -.844E-14 0.131E-12   -.278E-16 -.694E-17 -.133E-14   -.547E-12 -.707E-11 0.238E-10

 POSITION                                       TOTAL-FORCE (eV/Angst)
      1.48411      1.50564      1.60218        -0.006388      0.002502     -0.004317
      4.47171      1.50564      1.60218         0.006388      0.002502     -0.004317
      1.48411      4.45018      1.60218        -0.006388     -0.002502     -0.004317
      4.47171      4.45018      1.60218         0.006388     -0.002502     -0.004317
      1.48411      1.50564      4.35365        -0.006388      0.002502      0.004317
      4.47171      1.50564      4.35365         0.006388      0.002502      0.004317
      1.48411      4.45018      4.35365        -0.006388     -0.002502      0.004317
      4.47171      4.45018      4.35365         0.006388     -0.002502      0.004317
      2.97791      0.00000      0.00000         0.000000     -0.000000      0.000000
      0.00000      2.97791      0.00000         0.000000     -0.000000      0.000000
      0.00000      0.00000      2.97791         0.000000     -0.000000      0.000000
      2.97791      0.00000      2.97791         0.000000     -0.000000      0.000000
      2.97791      2.97791      2.97791         0.000000     -0.000000      0.000000
      0.00000      2.97791      2.97791         0.000000     -0.000000      0.000000
      0.00000      0.00000      0.00000         0.000000     -0.000000      0.000000
      2.97791      2.97791      0.00000         0.000000     -0.000000      0.000000
    total drift:                                0.000000      0.000000     -0.000000

  FREE ENERGIE OF THE ION-ELECTRON SYSTEM (eV)
  free  energy   TOTEN  =      -103.28182689 eV

  energy  without entropy=     -103.27965639  energy(sigma->0) =     -103.28074164

 d Force = 0.1681863E-03[ 0.111E-03, 0.226E-03]  d Energy = 0.2028483E-03-0.347E-04
 d Force =-0.1873928E+00[-0.203E+00,-0.171E+00]  d Ewald  =-0.1873927E+00-0.116E-06

 reached required accuracy - stopping structural energy minimisation

 total charge

[...]

 magnetization (x)

# of ion       s       p       d       tot
    1       -0.007   0.000   0.260   0.254
    2       -0.005   0.002   0.255   0.252
    3       -0.004  -0.002   0.244   0.238
    4       -0.003   0.003   0.262   0.262
    5       -0.003   0.003   0.262   0.262
    6       -0.004  -0.002   0.244   0.238
    7       -0.005   0.002   0.255   0.252
    8       -0.007   0.000   0.260   0.254
    9       -0.037  -0.026  -3.589  -3.652
   10        0.025   0.034   3.579   3.637
   11       -0.036  -0.049  -3.303  -3.388
   12        0.029   0.049   3.462   3.540
   13        0.022   0.018   3.351   3.391
   14        0.031   0.012   3.463   3.505
   15       -0.002   0.048  -0.001   0.044
   16        0.012  -0.080  -0.004  -0.071
tot          0.006   0.011   9.001   9.019