 vasp.5.4.4.18Apr17-6-g9f103f2a35 (build May 21 2018 20:56:50) complex
 executed on             LinuxGNU date 2021.10.15  15:49:03

 INCAR:
 POTCAR:    PAW_PBE Ni 02Aug2007
 POTCAR:    PAW_PBE Mn 06Sep2000
 POTCAR:    PAW_PBE In 08Apr2002

 POTCAR:    PAW_PBE Ni 02Aug2007
   VRHFIN =Ni:

   TITEL  = PAW_PBE Ni 02Aug2007
   POMASS =   58.690; ZVAL   =   10.000    mass and valenz
   ENMAX  =  269.532; ENMIN  =  202.149 eV

 POTCAR:    PAW_PBE Mn 06Sep2000
   VRHFIN =Mn: d6 s1

   TITEL  = PAW_PBE Mn 06Sep2000
   POMASS =   54.938; ZVAL   =    7.000    mass and valenz
   ENMAX  =  269.864; ENMIN  =  202.398 eV

 POTCAR:    PAW_PBE In 08Apr2002
   VRHFIN =In: s2p1

   TITEL  = PAW_PBE In 08Apr2002
   POMASS =  114.820; ZVAL   =    3.000    mass and valenz
   ENMAX  =   95.934; ENMIN  =   71.951 eV

 Optimization of the real space projectors (new method)

 maximal supplied QI-value         = 16.25
 optimisation between [QCUT,QGAM] = [ 11.86, 23.89] = [ 39.41,159.82] Ry
 Optimized for a Real-space Cutoff    1.33 Angstroem

   l    n(q)    QCUT    max X(q) W(low)/X(q) W(high)/X(q)  e(spline)
   2      9    11.864    60.317    0.21E-03    0.51E-03    0.25E-06
   2      9    11.864    55.921    0.21E-03    0.51E-03    0.26E-06
   0      9    11.864    51.690    0.22E-03    0.30E-04    0.17E-06
   0      9    11.864    30.015    0.20E-03    0.28E-04    0.15E-06
   1      9    11.864    18.849    0.76E-04    0.33E-03    0.17E-06
   1      9    11.864    14.624    0.60E-04    0.28E-03    0.15E-06
 Optimization of the real space projectors (new method)

[...]

   l    n(q)    QCUT    max X(q) W(low)/X(q) W(high)/X(q)  e(spline)
   2      9    11.864   110.144    0.49E-03    0.50E-03    0.21E-06
   2      9    11.864   103.200    0.49E-03    0.51E-03    0.22E-06
   0     10    11.864    68.437    0.12E-03    0.41E-04    0.21E-06
   0     10    11.864    33.971    0.11E-03    0.36E-04    0.19E-06
   1      9    11.864    17.065    0.24E-03    0.26E-03    0.93E-07
   1      9    11.864    12.540    0.19E-03    0.20E-03    0.80E-07
 Optimization of the real space projectors (new method)

 maximal supplied QI-value         = 12.09
 optimisation between [QCUT,QGAM] = [ 11.97, 23.95] = [ 40.14,160.58] Ry
 Optimized for a Real-space Cutoff    1.63 Angstroem

   l    n(q)    QCUT    max X(q) W(low)/X(q) W(high)/X(q)  e(spline)
   0     12    11.973   106.980    0.33E-03    0.16E-03    0.25E-05
   0     12    11.973    81.086    0.37E-03    0.18E-03    0.28E-05
   1     11    11.973    53.097    0.22E-03    0.42E-03    0.40E-05
   1     11    11.973    32.621    0.20E-03    0.40E-03    0.37E-05
   2     11    11.973     8.820    0.30E-03    0.17E-03    0.41E-06
  PAW_PBE Ni 02Aug2007                  :
  PAW_PBE Mn 06Sep2000                  :
  PAW_PBE In 08Apr2002                  :

 POSCAR: Ni2MnIn
  positions in direct lattice
  velocities in cartesian coordinates
 exchange correlation table for  LEXCH =        8
   RHO(1)=    0.500       N(1)  =     2000
   RHO(2)=  100.500       N(2)  =     4000

 ion  position               nearest neighbor table
   1  0.250  0.250  0.250-   9 2.59  10 2.59  11 2.59  12 2.59  13 2.59  14 2.59  15 2.59  16 2.59
                             5 2.99   2 2.99   3 2.99   5 2.99   3 2.99   2 2.99
   2  0.750  0.250  0.250-   9 2.59  10 2.59  11 2.59  12 2.59  13 2.59  14 2.59  15 2.59  16 2.59
                             6 2.99   1 2.99   4 2.99   6 2.99   4 2.99   1 2.99
   3  0.250  0.750  0.250-   9 2.59  10 2.59  11 2.59  12 2.59  13 2.59  14 2.59  15 2.59  16 2.59
                             7 2.99   1 2.99   4 2.99   7 2.99   1 2.99   4 2.99
   4  0.750  0.750  0.250-   9 2.59  10 2.59  11 2.59  12 2.59  13 2.59  14 2.59  15 2.59  16 2.59
                             8 2.99   2 2.99   3 2.99   8 2.99   2 2.99   3 2.99
   5  0.250  0.250  0.750-   9 2.59  10 2.59  11 2.59  12 2.59  13 2.59  14 2.59  15 2.59  16 2.59
                             7 2.99   1 2.99   6 2.99   1 2.99   7 2.99   6 2.99
   6  0.750  0.250  0.750-   9 2.59  10 2.59  11 2.59  12 2.59  13 2.59  14 2.59  15 2.59  16 2.59
                             8 2.99   2 2.99   5 2.99   2 2.99   8 2.99   5 2.99
   7  0.250  0.750  0.750-   9 2.59  10 2.59  11 2.59  12 2.59  13 2.59  14 2.59  15 2.59  16 2.59
                             8 2.99   3 2.99   5 2.99   3 2.99   5 2.99   8 2.99
   8  0.750  0.750  0.750-   9 2.59  10 2.59  11 2.59  12 2.59  13 2.59  14 2.59  15 2.59  16 2.59
                             7 2.99   4 2.99   6 2.99   4 2.99   6 2.99   7 2.99
   9  0.500  0.000  0.000-   1 2.59   2 2.59   3 2.59   4 2.59   5 2.59   6 2.59   7 2.59   8 2.59
                            10 2.99  13 2.99  15 2.99  13 2.99  10 2.99  15 2.99
  10  0.500  0.500  0.000-   1 2.59   2 2.59   3 2.59   4 2.59   5 2.59   6 2.59   7 2.59   8 2.59
                             9 2.99  11 2.99  16 2.99  16 2.99   9 2.99  11 2.99
  11  0.000  0.500  0.000-   1 2.59   2 2.59   3 2.59   4 2.59   5 2.59   6 2.59   7 2.59   8 2.59
                            10 2.99  14 2.99  15 2.99  14 2.99  15 2.99  10 2.99
  12  0.000  0.000  0.500-   1 2.59   2 2.59   3 2.59   4 2.59   5 2.59   6 2.59   7 2.59   8 2.59
                            13 2.99  14 2.99  15 2.99  15 2.99  14 2.99  13 2.99
  13  0.500  0.000  0.500-   1 2.59   2 2.59   3 2.59   4 2.59   5 2.59   6 2.59   7 2.59   8 2.59
                             9 2.99  12 2.99  16 2.99   9 2.99  16 2.99  12 2.99
  14  0.000  0.500  0.500-   1 2.59   2 2.59   3 2.59   4 2.59   5 2.59   6 2.59   7 2.59   8 2.59
                            11 2.99  12 2.99  16 2.99  11 2.99  12 2.99  16 2.99
  15  0.000  0.000  0.000-   1 2.59   2 2.59   3 2.59   4 2.59   5 2.59   6 2.59   7 2.59   8 2.59
                             9 2.99  11 2.99  12 2.99  12 2.99  11 2.99   9 2.99
  16  0.500  0.500  0.500-   1 2.59   2 2.59   3 2.59   4 2.59   5 2.59   6 2.59   7 2.59   8 2.59
                            10 2.99  13 2.99  14 2.99  10 2.99  13 2.99  14 2.99

  LATTYP: Found a simple cubic cell.
 ALAT       =     5.9723268495

  Lattice vectors:

 A1 = (   5.9723268495,   0.0000000000,   0.0000000000)
 A2 = (   0.0000000000,   5.9723268495,   0.0000000000)
 A3 = (   0.0000000000,   0.0000000000,   5.9723268495)

Analysis of symmetry for initial positions (statically):
 Subroutine PRICEL returns following result:

  LATTYP: Found a body centered cubic cell.
 ALAT       =     5.9723268495

[...]

   2 primitive cells build up your supercell.

 Routine SETGRP: Setting up the symmetry group for a
 simple cubic supercell.

 Subroutine GETGRP returns: Found 48 space group operations
 (whereof 48 operations were pure point group operations)
 out of a pool of 48 trial point group operations.

The static configuration has the point symmetry O_h .

Analysis of symmetry for dynamics (positions and initial velocities):
 Subroutine PRICEL returns following result:

[...]

The dynamic configuration has the point symmetry O_h .

Analysis of structural, dynamic, and magnetic symmetry:
 Subroutine PRICEL returns following result:

  LATTYP: Found a body centered cubic cell.
 ALAT       =     5.9723268495

  Lattice vectors:

 A1 = (   2.9861634247,   2.9861634247,   2.9861634247)
 A2 = (   2.9861634247,  -2.9861634247,  -2.9861634247)
 A3 = (  -2.9861634247,   2.9861634247,  -2.9861634247)

   2 primitive cells build up your supercell.

 Routine SETGRP: Setting up the symmetry group for a
 simple cubic supercell.

 Subroutine GETGRP returns: Found 48 space group operations
 (whereof 48 operations were pure point group operations)
 out of a pool of 48 trial point group operations.

The magnetic configuration has the point symmetry O_h .

 Subroutine INISYM returns: Found 48 space group operations
 (whereof 48 operations are pure point group operations),
 and found     2 'primitive' translations

 KPOINTS: k-points

Automatic generation of k-mesh.
Space group operators:
 irot       det(A)        alpha          n_x          n_y          n_z        tau_x        tau_y        tau_z
    1     1.000000     0.000000     1.000000     0.000000     0.000000     0.000000     0.000000    -0.000000
    2    -1.000000     0.000000     1.000000     0.000000     0.000000     0.000000     0.000000    -0.000000
    3     1.000000   120.000000    -0.577350    -0.577350    -0.577350     0.000000     0.000000    -0.000000
    4    -1.000000   120.000000    -0.577350    -0.577350    -0.577350     0.000000     0.000000    -0.000000
    5     1.000000   120.000000     0.577350     0.577350     0.577350     0.000000     0.000000    -0.000000
    6    -1.000000   120.000000     0.577350     0.577350     0.577350     0.000000     0.000000    -0.000000
    7     1.000000    90.000000     0.000000     0.000000    -1.000000     0.000000     0.000000    -0.000000
    8    -1.000000    90.000000     0.000000     0.000000    -1.000000     0.000000     0.000000    -0.000000
    9     1.000000   180.000000     0.000000     0.707107     0.707107     0.000000     0.000000    -0.000000
   10    -1.000000   180.000000     0.000000     0.707107     0.707107     0.000000     0.000000    -0.000000
   11     1.000000    90.000000     0.000000     1.000000     0.000000     0.000000     0.000000    -0.000000
   12    -1.000000    90.000000     0.000000     1.000000     0.000000     0.000000     0.000000    -0.000000
   13     1.000000   180.000000     0.000000     0.000000     1.000000     0.000000     0.000000    -0.000000
   14    -1.000000   180.000000     0.000000     0.000000     1.000000     0.000000     0.000000    -0.000000
   15     1.000000   120.000000    -0.577350     0.577350     0.577350     0.000000     0.000000    -0.000000
   16    -1.000000   120.000000    -0.577350     0.577350     0.577350     0.000000     0.000000    -0.000000
   17     1.000000   120.000000    -0.577350     0.577350    -0.577350     0.000000     0.000000    -0.000000
   18    -1.000000   120.000000    -0.577350     0.577350    -0.577350     0.000000     0.000000    -0.000000
   19     1.000000    90.000000     0.000000     0.000000     1.000000     0.000000     0.000000    -0.000000
   20    -1.000000    90.000000     0.000000     0.000000     1.000000     0.000000     0.000000    -0.000000
   21     1.000000    90.000000    -1.000000     0.000000     0.000000     0.000000     0.000000    -0.000000
   22    -1.000000    90.000000    -1.000000     0.000000     0.000000     0.000000     0.000000    -0.000000
   23     1.000000   180.000000     0.707107     0.000000     0.707107     0.000000     0.000000    -0.000000
   24    -1.000000   180.000000     0.707107     0.000000     0.707107     0.000000     0.000000    -0.000000
   25     1.000000   120.000000     0.577350    -0.577350     0.577350     0.000000     0.000000    -0.000000
   26    -1.000000   120.000000     0.577350    -0.577350     0.577350     0.000000     0.000000    -0.000000
   27     1.000000   120.000000    -0.577350    -0.577350     0.577350     0.000000     0.000000    -0.000000
   28    -1.000000   120.000000    -0.577350    -0.577350     0.577350     0.000000     0.000000    -0.000000
   29     1.000000   180.000000     1.000000     0.000000     0.000000     0.000000     0.000000    -0.000000
[...]

 First call to EWALD:  gamma=   0.297
 Maximum number of real-space cells 3x 3x 3
 Maximum number of reciprocal cells 3x 3x 3

--------------------------------------- Iteration      1(   1)  ---------------------------------------

 eigenvalue-minimisations  :  7680
 total energy-change (2. order) : 0.1061412E+04  (-0.5340880E+04)
 number of electron     128.0000000 magnetization      24.8000000
 augmentation part      128.0000000 magnetization      24.8000000

 Free energy of the ion-electron system (eV)
  alpha Z        PSCENC =       528.22220595
  Ewald energy   TEWEN  =     -9384.82947153
  -Hartree energ DENC   =     -3033.09946511
  -exchange      EXHF   =         0.00000000
  -V(xc)+E(xc)   XCENC  =        78.20050227
  PAW double counting   =     10320.96726947   -10647.99417394
  entropy T*S    EENTRO =        -0.00241360
  eigenvalues    EBANDS =      1970.48552327
  atomic energy  EATOM  =     11229.46195210
  Solvation  Ediel_sol  =         0.00000000
  free energy    TOTEN  =      1061.41192887 eV

  energy without entropy =     1061.41434247  energy(sigma->0) =     1061.41313567

[...]

 eigenvalue-minimisations  :  7680
 total energy-change (2. order) :-0.1062009E+04  (-0.1009110E+04)
 number of electron     128.0000000 magnetization      24.8000000
 augmentation part      128.0000000 magnetization      24.8000000

[...]

 Broyden mixing:
  rms(total) = 0.34434E+01    rms(broyden)= 0.34432E+01
  rms(prec ) = 0.53714E+01
  weight for this iteration     100.00

[...]

 eigenvalues of (default mixing * dielectric matrix)
  average eigenvalue GAMMA=   0.1677
  0.1677

[...]

 eigenvalue-minimisations  :  7797
 total energy-change (2. order) : 0.2960495E-04  (-0.1133512E-04)
 number of electron     127.9999587 magnetization      26.8245226
 augmentation part       67.7803397 magnetization      19.7484887

 Broyden mixing:
  rms(total) = 0.38730E-02    rms(broyden)= 0.38730E-02
  rms(prec ) = 0.39563E-02
  weight for this iteration     100.00

 eigenvalues of (default mixing * dielectric matrix)
  average eigenvalue GAMMA=   1.1187
  2.5661  2.5661  0.2057  1.1288  1.1288  0.8696  0.8696  0.5400  0.6563  0.6563

[...]

--------------------------------------- Iteration      1(  16)  ---------------------------------------

 eigenvalue-minimisations  :  4623
 total energy-change (2. order) :-0.8114124E-05  (-0.1742535E-05)
 number of electron     127.9999587 magnetization      26.8245226
 augmentation part       67.7803397 magnetization      19.7484887

 Free energy of the ion-electron system (eV)
  alpha Z        PSCENC =       528.22220595
  Ewald energy   TEWEN  =     -9384.82947153
  -Hartree energ DENC   =     -2824.89462235
  -exchange      EXHF   =         0.00000000
  -V(xc)+E(xc)   XCENC  =        76.51086850
  PAW double counting   =     12935.58153257   -13280.53932764
  entropy T*S    EENTRO =        -0.00340796
  eigenvalues    EBANDS =       617.54966594
  atomic energy  EATOM  =     11229.46195210
  Solvation  Ediel_sol  =         0.00000000
  free energy    TOTEN  =      -102.94060443 eV

  energy without entropy =     -102.93719646  energy(sigma->0) =     -102.93890044

 average (electrostatic) potential at core
  the test charge radii are     0.9791  1.0210  1.4837
  (the norm of the test charge is              1.0000)
       1 -84.0488       2 -84.0488       3 -84.0488       4 -84.0488       5 -84.0488
       6 -84.0488       7 -84.0488       8 -84.0488       9 -42.3736      10 -42.3736
      11 -42.3736      12 -42.3736      13 -42.3736      14 -42.3736      15 -34.6416
      16 -34.6416

 E-fermi :   7.3548     XC(G=0): -12.2592     alpha+bet :-14.0443

 spin component 1

 k-point     1 :       0.0000    0.0000    0.0000
  band No.  band energies     occupation
      1      -2.0863      1.00000
      2       0.3746      1.00000
      3       2.1015      1.00000
      4       2.1015      1.00000
      5       2.1015      1.00000
      6       2.1267      1.00000
      7       2.7908      1.00000
      8       2.7908      1.00000
      9       2.8172      1.00000
     10       2.8172      1.00000
     11       2.8172      1.00000
     12       2.9129      1.00000
     13       2.9129      1.00000
     14       3.6344      1.00000
     15       3.6344      1.00000
     16       3.9924      1.00000
     17       3.9924      1.00000
     18       3.9924      1.00000
     19       4.1032      1.00000
     20       4.1032      1.00000
     21       4.1032      1.00000
     22       4.1942      1.00000
     23       4.1942      1.00000
     24       4.1942      1.00000
     25       4.2704      1.00000
     26       4.5293      1.00000
     27       4.5293      1.00000
     28       4.5293      1.00000
     29       4.5890      1.00000
     30       4.5890      1.00000
     31       4.5890      1.00000
     32       5.0425      1.00000
     33       5.0425      1.00000
     34       5.0425      1.00000
     35       5.0540      1.00000
     36       5.0540      1.00000
     37       5.1818      1.00000
     38       5.1818      1.00000
     39       5.1818      1.00000
     40       5.2952      1.00000
     41       5.2952      1.00000
     42       5.2952      1.00000
     43       5.4603      1.00000
     44       5.4603      1.00000
     45       5.4603      1.00000
     46       5.5739      1.00000
     47       5.5739      1.00000
     48       5.5739      1.00000
     49       5.6540      1.00000
     50       5.7795      1.00000
     51       5.7795      1.00000
     52       5.7873      1.00000
     53       5.7907      1.00000
     54       5.7907      1.00000
     55       5.7907      1.00000
     56       5.8977      1.00000
     57       5.8977      1.00000
     58       5.9637      1.00000
     59       5.9637      1.00000
     60       5.9637      1.00000
[...]
     82       7.0432      1.00000
     83       7.0432      1.00000
     84      10.3824      0.00000
     85      11.8372      0.00000
     86      11.8372      0.00000
     87      11.8372      0.00000
     88      12.4628      0.00000
     89      12.4628      0.00000
     90      13.2301      0.00000
     91      13.2301      0.00000
     92      13.2301      0.00000
     93      13.6827      0.00000
     94      13.6831      0.00000
     95      13.6841      0.00000
     96      13.9850      0.00000

[...]

 spin component 2

[...]

 k-point    20 :       0.4286    0.4286    0.4286
  band No.  band energies     occupation
      1      -0.1386      1.00000
      2      -0.0739      1.00000
      3       1.6762      1.00000
      4       1.8178      1.00000
      5       1.8178      1.00000
      6       2.3593      1.00000
      7       2.3593      1.00000
      8       2.6902      1.00000
      9       4.5984      1.00000
     10       4.6603      1.00000
     11       4.7308      1.00000
     12       4.7308      1.00000
     13       4.7678      1.00000
     14       4.7678      1.00000
     15       5.0211      1.00000
     16       5.0211      1.00000
     17       5.0637      1.00000
     18       5.1057      1.00000
     19       5.1057      1.00000
     20       5.2328      1.00000
     21       5.2399      1.00000
     22       5.2946      1.00000
     23       5.3607      1.00000
     24       5.3607      1.00000
     25       5.3923      1.00000
     26       5.3923      1.00000
     27       5.4078      1.00000
     28       5.4188      1.00000
     29       5.4188      1.00000
     30       5.4267      1.00000
     31       5.4267      1.00000
     32       5.4433      1.00000
     33       5.4711      1.00000
     34       5.4711      1.00000
     35       5.4865      1.00000
     36       5.5530      1.00000
     37       5.5530      1.00000
     38       5.5575      1.00000
     39       5.5575      1.00000
     40       5.5697      1.00000
     41       5.5697      1.00000
     42       5.6288      1.00000
     43       5.8374      1.00000
     44       5.8716      1.00000
     45       5.8716      1.00000
     46       5.9366      1.00000
     47       5.9366      1.00000
     48       5.9700      1.00000
     49       8.0340      0.00000
     50       8.0340      0.00000
     51       8.0663      0.00000
     52       8.0709      0.00000
     53       8.0709      0.00000
     54       8.1707      0.00000
     55       8.1948      0.00000
     56       8.1948      0.00000
     57       8.2472      0.00000
     58       8.2481      0.00000
     59       8.2481      0.00000
     60       8.2749      0.00000
[...]
     82      12.1641      0.00000
     83      12.1641      0.00000
     84      12.6140      0.00000
     85      12.9577      0.00000
     86      12.9577      0.00000
     87      13.0423      0.00000
     88      13.1159      0.00000
     89      13.1159      0.00000
     90      13.4974      0.00000
     91      13.8931      0.00000
     92      14.0217      0.00000
     93      14.0226      0.00000
     94      14.1530      0.00000
     95      14.1573      0.00000
     96      14.9687      0.00000

 soft charge-density along one line, spin component           1
         0         1         2         3         4         5         6         7         8         9
 total charge-density along one line

 soft charge-density along one line, spin component           2
         0         1         2         3         4         5         6         7         8         9
 total charge-density along one line

------------------------ aborting loop because EDIFF is reached ----------------------------------------

 total charge

# of ion       s       p       d       tot
    1        0.466   0.427   8.363   9.255
    2        0.463   0.424   8.386   9.273
    3        0.465   0.423   8.366   9.254
    4        0.466   0.423   8.341   9.231
    5        0.466   0.423   8.341   9.231
    6        0.465   0.423   8.366   9.254
    7        0.463   0.424   8.386   9.273
    8        0.466   0.427   8.363   9.255
    9        0.318   0.305   4.935   5.558
   10        0.336   0.316   4.944   5.596
   11        0.324   0.315   4.932   5.571
   12        0.336   0.316   4.944   5.596
   13        0.324   0.315   4.932   5.571
   14        0.318   0.305   4.935   5.558
   15        1.272   1.807   0.355   3.434
   16        1.272   1.807   0.355   3.434
tot          8.222   8.878  97.246 114.346

 magnetization (x)

[...]

  FORCE on cell =-STRESS in cart. coord.  units (eV):
  Direction    XX          YY          ZZ          XY          YZ          ZX
  Alpha Z   528.22221   528.22221   528.22221
  Ewald   -3128.28586 -3128.28586 -3128.28586    -0.00000     0.00000     0.00000
  Hartree   941.67747   941.67747   941.67747    -0.00000    -0.00000    -0.00000
  E(xc)    -671.73749  -671.73749  -671.73749    -0.00000     0.00000    -0.00000
  Local    -165.86912  -165.86912  -165.86912    -0.00000    -0.00000     0.00000
  n-local  -146.89828  -146.98966  -141.02658     0.42475    -0.71309    -0.01268
  augment  1580.75914  1580.75914  1580.75914    -0.00000    -0.00000     0.00000
  Kinetic  1047.85040  1058.41633  1076.16451     1.06607    -1.11452     0.34786
  Fock        0.00000     0.00000     0.00000     0.00000     0.00000     0.00000
  Total       0.60524     0.60524     0.60524     0.00000    -0.00000     0.00000
  in kB       4.55209     4.55209     4.55209     0.00000    -0.00000     0.00000

 VOLUME and BASIS-vectors are now :
  energy-cutoff  :      550.00
  volume of cell :      213.03
      direct lattice vectors                 reciprocal lattice vectors
     5.972326849  0.000000000  0.000000000     0.167438927  0.000000000  0.000000000
     0.000000000  5.972326849  0.000000000     0.000000000  0.167438927  0.000000000
     0.000000000  0.000000000  5.972326849     0.000000000  0.000000000  0.167438927

  length of vectors
     5.972326849  5.972326849  5.972326849     0.167438927  0.167438927  0.167438927

 FORCES acting on ions
    electron-ion (+dipol)            ewald-force                    non-local-force                 convergence-correction
   0.107E-11 0.572E-12 0.811E-12   -.107E-13 -.391E-13 -.284E-13   0.000E+00 -.455E-23 0.000E+00   -.963E-15 0.139E-13 -.268E-12
   -.145E-12 -.685E-12 -.147E-11   -.924E-13 -.462E-13 -.178E-13   -.265E-22 0.132E-22 0.397E-22   0.185E-13 0.429E-13 -.322E-12
   0.671E-12 0.343E-11 0.775E-12   -.782E-13 -.604E-13 -.107E-13   0.265E-22 -.529E-22 -.199E-22   0.482E-13 0.241E-13 -.241E-12
   0.692E-12 0.412E-11 -.814E-11   -.462E-13 -.426E-13 0.355E-14   0.199E-22 -.199E-22 0.000E+00   0.153E-13 0.623E-15 -.262E-12
   0.662E-12 0.556E-12 0.206E-11   -.462E-13 -.711E-13 0.178E-13   0.397E-22 0.394E-22 -.397E-22   0.399E-15 0.272E-13 0.169E-12
   0.587E-12 -.127E-11 0.606E-11   -.639E-13 -.888E-13 0.178E-13   -.265E-22 -.232E-22 -.132E-22   0.326E-13 0.167E-13 0.249E-12
   0.474E-12 0.390E-11 0.180E-11   -.924E-13 -.462E-13 -.178E-13   -.199E-22 0.132E-22 0.662E-23   -.926E-15 0.121E-13 0.163E-12
   0.176E-11 -.374E-11 0.645E-11   -.249E-13 -.391E-13 -.142E-13   0.000E+00 -.331E-22 0.000E+00   0.362E-13 0.154E-13 0.227E-12
   0.199E-12 -.103E-13 -.960E-12   0.740E-13 0.527E-13 0.696E-13   0.529E-22 0.000E+00 0.000E+00   -.292E-15 0.371E-13 0.586E-13
   0.200E-12 0.171E-12 0.207E-12   0.754E-13 0.611E-13 -.293E-13   0.000E+00 -.265E-22 -.529E-22   0.112E-13 -.330E-13 0.467E-13
   -.280E-13 0.206E-12 -.497E-13   0.661E-13 0.592E-13 -.147E-14   0.000E+00 0.662E-22 0.000E+00   0.369E-14 -.597E-13 0.358E-13
   -.257E-13 -.459E-13 0.189E-12   0.722E-13 0.675E-13 -.538E-13   0.000E+00 0.000E+00 0.529E-22   0.395E-13 0.120E-13 -.341E-13
   0.194E-12 -.280E-13 0.875E-12   0.702E-13 0.719E-13 0.142E-14   -.265E-22 -.265E-22 -.265E-22   -.212E-13 0.136E-13 -.492E-13
   -.218E-13 0.204E-12 0.176E-12   0.695E-13 0.615E-13 0.298E-13   -.529E-22 0.000E+00 0.000E+00   0.429E-13 -.258E-13 -.391E-13
   -.259E-13 -.156E-13 -.891E-14   0.128E-13 -.551E-14 -.162E-14   0.000E+00 0.000E+00 0.000E+00   0.404E-16 0.128E-13 0.131E-13
   -.371E-13 -.258E-12 -.641E-12   0.139E-13 0.295E-14 0.316E-14   0.000E+00 0.000E+00 0.827E-24   -.755E-14 -.822E-14 -.148E-13
   0.623E-11 0.711E-11 0.814E-11   -.631E-15 -.620E-13 -.319E-13   -.132E-22 -.545E-22 -.521E-22   0.218E-12 0.102E-12 -.267E-12

 POSITION                                       TOTAL-FORCE (eV/Angst)
      1.49308      1.49308      1.49308         0.000000      0.000000      0.000000
      4.47925      1.49308      1.49308         0.000000     -0.000000      0.000000
      1.49308      4.47925      1.49308         0.000000     -0.000000      0.000000
      4.47925      4.47925      1.49308         0.000000     -0.000000     -0.000000
      1.49308      1.49308      4.47925        -0.000000     -0.000000      0.000000
      4.47925      1.49308      4.47925        -0.000000     -0.000000      0.000000
      1.49308      4.47925      4.47925        -0.000000      0.000000     -0.000000
      4.47925      4.47925      4.47925         0.000000     -0.000000     -0.000000
      2.98616      0.00000      0.00000         0.000000     -0.000000     -0.000000
      2.98616      2.98616      0.00000         0.000000     -0.000000     -0.000000
      0.00000      2.98616      0.00000        -0.000000     -0.000000     -0.000000
      0.00000      0.00000      2.98616         0.000000     -0.000000      0.000000
      2.98616      0.00000      2.98616        -0.000000     -0.000000      0.000000
      0.00000      2.98616      2.98616        -0.000000      0.000000      0.000000
      0.00000      0.00000      0.00000         0.000000     -0.000000      0.000000
      2.98616      2.98616      2.98616        -0.000000     -0.000000     -0.000000
    total drift:                                0.000000      0.000000      0.000000

  FREE ENERGIE OF THE ION-ELECTRON SYSTEM (eV)
  free  energy   TOTEN  =      -102.94060443 eV

  energy  without entropy=     -102.93719646  energy(sigma->0) =     -102.93890044

 reached required accuracy - stopping structural energy minimisation

 total charge

[...]

 magnetization (x)

# of ion       s       p       d       tot
    1       -0.022  -0.010   0.629   0.597
    2       -0.022  -0.015   0.603   0.566
    3       -0.021  -0.016   0.588   0.550
    4       -0.019  -0.014   0.606   0.573
    5       -0.019  -0.014   0.606   0.573
    6       -0.021  -0.016   0.588   0.550
    7       -0.022  -0.015   0.603   0.566
    8       -0.022  -0.010   0.629   0.597
    9        0.024   0.019   3.601   3.644
   10        0.025   0.015   3.533   3.572
   11        0.024   0.014   3.593   3.631
   12        0.025   0.015   3.533   3.572
   13        0.024   0.014   3.593   3.631
   14        0.024   0.019   3.601   3.644
   15        0.004  -0.106  -0.017  -0.119
   16        0.004  -0.106  -0.017  -0.119
tot         -0.015  -0.227  26.270  26.028