 vasp.5.4.4.18Apr17-6-g9f103f2a35 (build May 21 2018 20:56:50) complex
 executed on             LinuxGNU date 2021.10.15  15:49:47

 INCAR:
 POTCAR:    PAW_PBE Ni 02Aug2007
 POTCAR:    PAW_PBE Mn 06Sep2000
 POTCAR:    PAW_PBE In 08Apr2002

 POTCAR:    PAW_PBE Ni 02Aug2007
   VRHFIN =Ni:

   TITEL  = PAW_PBE Ni 02Aug2007
   POMASS =   58.690; ZVAL   =   10.000    mass and valenz
   ENMAX  =  269.532; ENMIN  =  202.149 eV

 POTCAR:    PAW_PBE Mn 06Sep2000
   VRHFIN =Mn: d6 s1

   TITEL  = PAW_PBE Mn 06Sep2000
   POMASS =   54.938; ZVAL   =    7.000    mass and valenz
   ENMAX  =  269.864; ENMIN  =  202.398 eV

 POTCAR:    PAW_PBE In 08Apr2002
   VRHFIN =In: s2p1

   TITEL  = PAW_PBE In 08Apr2002
   POMASS =  114.820; ZVAL   =    3.000    mass and valenz
   ENMAX  =   95.934; ENMIN  =   71.951 eV

 Optimization of the real space projectors (new method)

 maximal supplied QI-value         = 16.25
 optimisation between [QCUT,QGAM] = [ 11.86, 23.89] = [ 39.41,159.82] Ry
 Optimized for a Real-space Cutoff    1.33 Angstroem

   l    n(q)    QCUT    max X(q) W(low)/X(q) W(high)/X(q)  e(spline)
   2      9    11.864    60.317    0.21E-03    0.51E-03    0.25E-06
   2      9    11.864    55.921    0.21E-03    0.51E-03    0.26E-06
   0      9    11.864    51.690    0.22E-03    0.30E-04    0.17E-06
   0      9    11.864    30.015    0.20E-03    0.28E-04    0.15E-06
   1      9    11.864    18.849    0.76E-04    0.33E-03    0.17E-06
   1      9    11.864    14.624    0.60E-04    0.28E-03    0.15E-06
 Optimization of the real space projectors (new method)

[...]

   l    n(q)    QCUT    max X(q) W(low)/X(q) W(high)/X(q)  e(spline)
   2      9    11.864   110.144    0.49E-03    0.50E-03    0.21E-06
   2      9    11.864   103.200    0.49E-03    0.51E-03    0.22E-06
   0     10    11.864    68.437    0.12E-03    0.41E-04    0.21E-06
   0     10    11.864    33.971    0.11E-03    0.36E-04    0.19E-06
   1      9    11.864    17.065    0.24E-03    0.26E-03    0.93E-07
   1      9    11.864    12.540    0.19E-03    0.20E-03    0.80E-07
 Optimization of the real space projectors (new method)

 maximal supplied QI-value         = 12.09
 optimisation between [QCUT,QGAM] = [ 11.97, 23.95] = [ 40.14,160.58] Ry
 Optimized for a Real-space Cutoff    1.63 Angstroem

   l    n(q)    QCUT    max X(q) W(low)/X(q) W(high)/X(q)  e(spline)
   0     12    11.973   106.980    0.33E-03    0.16E-03    0.25E-05
   0     12    11.973    81.086    0.37E-03    0.18E-03    0.28E-05
   1     11    11.973    53.097    0.22E-03    0.42E-03    0.40E-05
   1     11    11.973    32.621    0.20E-03    0.40E-03    0.37E-05
   2     11    11.973     8.820    0.30E-03    0.17E-03    0.41E-06
  PAW_PBE Ni 02Aug2007                  :
  PAW_PBE Mn 06Sep2000                  :
  PAW_PBE In 08Apr2002                  :

 POSCAR: Ni2MnIn
  positions in direct lattice
  velocities in cartesian coordinates
 exchange correlation table for  LEXCH =        8
   RHO(1)=    0.500       N(1)  =     2000
   RHO(2)=  100.500       N(2)  =     4000

 ion  position               nearest neighbor table
   1  0.250  0.250  0.250-   9 2.58  10 2.58  11 2.58  12 2.58  13 2.58  14 2.58  15 2.58  16 2.58
                             5 2.98   2 2.98   3 2.98   5 2.98   3 2.98   2 2.98
   2  0.750  0.250  0.250-   9 2.58  10 2.58  11 2.58  12 2.58  13 2.58  14 2.58  15 2.58  16 2.58
                             6 2.98   1 2.98   4 2.98   6 2.98   4 2.98   1 2.98
   3  0.250  0.750  0.250-   9 2.58  10 2.58  11 2.58  12 2.58  13 2.58  14 2.58  15 2.58  16 2.58
                             7 2.98   1 2.98   4 2.98   7 2.98   1 2.98   4 2.98
   4  0.750  0.750  0.250-   9 2.58  10 2.58  11 2.58  12 2.58  13 2.58  14 2.58  15 2.58  16 2.58
                             8 2.98   2 2.98   3 2.98   8 2.98   2 2.98   3 2.98
   5  0.250  0.250  0.750-   9 2.58  10 2.58  11 2.58  12 2.58  13 2.58  14 2.58  15 2.58  16 2.58
                             7 2.98   1 2.98   6 2.98   1 2.98   7 2.98   6 2.98
   6  0.750  0.250  0.750-   9 2.58  10 2.58  11 2.58  12 2.58  13 2.58  14 2.58  15 2.58  16 2.58
                             8 2.98   2 2.98   5 2.98   2 2.98   8 2.98   5 2.98
   7  0.250  0.750  0.750-   9 2.58  10 2.58  11 2.58  12 2.58  13 2.58  14 2.58  15 2.58  16 2.58
                             8 2.98   3 2.98   5 2.98   3 2.98   5 2.98   8 2.98
   8  0.750  0.750  0.750-   9 2.58  10 2.58  11 2.58  12 2.58  13 2.58  14 2.58  15 2.58  16 2.58
                             7 2.98   4 2.98   6 2.98   4 2.98   6 2.98   7 2.98
   9  0.500  0.000  0.000-   1 2.58   2 2.58   3 2.58   4 2.58   5 2.58   6 2.58   7 2.58   8 2.58
                            10 2.98  13 2.98  15 2.98  13 2.98  10 2.98  15 2.98
  10  0.500  0.500  0.000-   1 2.58   2 2.58   3 2.58   4 2.58   5 2.58   6 2.58   7 2.58   8 2.58
                             9 2.98  11 2.98  16 2.98  16 2.98   9 2.98  11 2.98
  11  0.000  0.500  0.000-   1 2.58   2 2.58   3 2.58   4 2.58   5 2.58   6 2.58   7 2.58   8 2.58
                            10 2.98  14 2.98  15 2.98  14 2.98  15 2.98  10 2.98
  12  0.000  0.000  0.500-   1 2.58   2 2.58   3 2.58   4 2.58   5 2.58   6 2.58   7 2.58   8 2.58
                            13 2.98  14 2.98  15 2.98  15 2.98  14 2.98  13 2.98
  13  0.500  0.000  0.500-   1 2.58   2 2.58   3 2.58   4 2.58   5 2.58   6 2.58   7 2.58   8 2.58
                             9 2.98  12 2.98  16 2.98   9 2.98  16 2.98  12 2.98
  14  0.000  0.500  0.500-   1 2.58   2 2.58   3 2.58   4 2.58   5 2.58   6 2.58   7 2.58   8 2.58
                            11 2.98  12 2.98  16 2.98  11 2.98  12 2.98  16 2.98
  15  0.000  0.000  0.000-   1 2.58   2 2.58   3 2.58   4 2.58   5 2.58   6 2.58   7 2.58   8 2.58
                             9 2.98  11 2.98  12 2.98  12 2.98  11 2.98   9 2.98
  16  0.500  0.500  0.500-   1 2.58   2 2.58   3 2.58   4 2.58   5 2.58   6 2.58   7 2.58   8 2.58
                            10 2.98  13 2.98  14 2.98  10 2.98  13 2.98  14 2.98

  LATTYP: Found a simple cubic cell.
 ALAT       =     5.9602056223

  Lattice vectors:

 A1 = (   5.9602056223,   0.0000000000,   0.0000000000)
 A2 = (   0.0000000000,   5.9602056223,   0.0000000000)
 A3 = (   0.0000000000,   0.0000000000,   5.9602056223)

Analysis of symmetry for initial positions (statically):
 Subroutine PRICEL returns following result:

  LATTYP: Found a body centered cubic cell.
 ALAT       =     5.9602056223

[...]

   2 primitive cells build up your supercell.

 Routine SETGRP: Setting up the symmetry group for a
 simple cubic supercell.

 Subroutine GETGRP returns: Found 48 space group operations
 (whereof 48 operations were pure point group operations)
 out of a pool of 48 trial point group operations.

The static configuration has the point symmetry O_h .

Analysis of symmetry for dynamics (positions and initial velocities):
 Subroutine PRICEL returns following result:

[...]

The dynamic configuration has the point symmetry O_h .

Analysis of structural, dynamic, and magnetic symmetry:
 Subroutine PRICEL returns following result:

  LATTYP: Found a body centered cubic cell.
 ALAT       =     5.9602056223

  Lattice vectors:

 A1 = (   2.9801028111,   2.9801028111,   2.9801028111)
 A2 = (   2.9801028111,  -2.9801028111,  -2.9801028111)
 A3 = (  -2.9801028111,   2.9801028111,  -2.9801028111)

   2 primitive cells build up your supercell.

 Routine SETGRP: Setting up the symmetry group for a
 simple cubic supercell.

 Subroutine GETGRP returns: Found 16 space group operations
 (whereof 16 operations were pure point group operations)
 out of a pool of 48 trial point group operations.

The magnetic configuration has the point symmetry D_4h.

 Subroutine INISYM returns: Found 16 space group operations
 (whereof 16 operations are pure point group operations),
 and found     2 'primitive' translations

 KPOINTS: k-points

Automatic generation of k-mesh.
Space group operators:
 irot       det(A)        alpha          n_x          n_y          n_z        tau_x        tau_y        tau_z
    1     1.000000     0.000000     1.000000     0.000000     0.000000     0.000000     0.000000    -0.000000
    2    -1.000000     0.000000     1.000000     0.000000     0.000000     0.000000     0.000000    -0.000000
    3     1.000000    90.000000     0.000000     0.000000    -1.000000     0.000000     0.000000    -0.000000
    4    -1.000000    90.000000     0.000000     0.000000    -1.000000     0.000000     0.000000    -0.000000
    5     1.000000   180.000000     0.000000     0.000000     1.000000     0.000000     0.000000    -0.000000
    6    -1.000000   180.000000     0.000000     0.000000     1.000000     0.000000     0.000000    -0.000000
    7     1.000000    90.000000     0.000000     0.000000     1.000000     0.000000     0.000000    -0.000000
    8    -1.000000    90.000000     0.000000     0.000000     1.000000     0.000000     0.000000    -0.000000
    9     1.000000   180.000000     1.000000     0.000000     0.000000     0.000000     0.000000    -0.000000
   10    -1.000000   180.000000     1.000000     0.000000     0.000000     0.000000     0.000000    -0.000000
   11     1.000000   180.000000     0.707107     0.707107     0.000000     0.000000     0.000000    -0.000000
   12    -1.000000   180.000000     0.707107     0.707107     0.000000     0.000000     0.000000    -0.000000
   13     1.000000   180.000000     0.000000     1.000000     0.000000     0.000000     0.000000    -0.000000
   14    -1.000000   180.000000     0.000000     1.000000     0.000000     0.000000     0.000000    -0.000000
   15     1.000000   180.000000     0.707107    -0.707107     0.000000     0.000000     0.000000    -0.000000
   16    -1.000000   180.000000     0.707107    -0.707107     0.000000     0.000000     0.000000    -0.000000

 Subroutine IBZKPT returns following result:

 Found     40 irreducible k-points:

 Following reciprocal coordinates:
            Coordinates               Weight
  0.000000  0.000000  0.000000      1.000000
  0.142857  0.000000  0.000000      4.000000
  0.285714  0.000000  0.000000      4.000000
  0.428571  0.000000  0.000000      4.000000
  0.142857  0.142857  0.000000      4.000000
  0.285714  0.142857  0.000000      8.000000
  0.428571  0.142857  0.000000      8.000000
  0.285714  0.285714  0.000000      4.000000
  0.428571  0.285714  0.000000      8.000000
  0.428571  0.428571  0.000000      4.000000
  0.000000  0.000000  0.142857      2.000000
  0.142857  0.000000  0.142857      8.000000
  0.285714  0.000000  0.142857      8.000000
  0.428571  0.000000  0.142857      8.000000
  0.142857  0.142857  0.142857      8.000000
  0.285714  0.142857  0.142857     16.000000
  0.428571  0.142857  0.142857     16.000000
  0.285714  0.285714  0.142857      8.000000
  0.428571  0.285714  0.142857     16.000000
  0.428571  0.428571  0.142857      8.000000
  0.000000  0.000000  0.285714      2.000000
  0.142857  0.000000  0.285714      8.000000
  0.285714  0.000000  0.285714      8.000000
  0.428571  0.000000  0.285714      8.000000
  0.142857  0.142857  0.285714      8.000000
  0.285714  0.142857  0.285714     16.000000
  0.428571  0.142857  0.285714     16.000000
  0.285714  0.285714  0.285714      8.000000
[...]

 First call to EWALD:  gamma=   0.297
 Maximum number of real-space cells 3x 3x 3
 Maximum number of reciprocal cells 3x 3x 3

--------------------------------------- Iteration      1(   1)  ---------------------------------------

 eigenvalue-minimisations  : 13440
 total energy-change (2. order) : 0.1066067E+04  (-0.5409492E+04)
 number of electron     128.0000000 magnetization       8.8000000
 augmentation part      128.0000000 magnetization       8.8000000

 Free energy of the ion-electron system (eV)
  alpha Z        PSCENC =       531.45148950
  Ewald energy   TEWEN  =     -9403.91533155
  -Hartree energ DENC   =     -3024.41039376
  -exchange      EXHF   =         0.00000000
  -V(xc)+E(xc)   XCENC  =        77.92550815
  PAW double counting   =     10320.96726947   -10647.99417394
  entropy T*S    EENTRO =        -0.00192355
  eigenvalues    EBANDS =      1982.58241010
  atomic energy  EATOM  =     11229.46195210
  Solvation  Ediel_sol  =         0.00000000
  free energy    TOTEN  =      1066.06680652 eV

  energy without entropy =     1066.06873007  energy(sigma->0) =     1066.06776830

[...]

 eigenvalue-minimisations  : 13440
 total energy-change (2. order) :-0.1064534E+04  (-0.1031859E+04)
 number of electron     128.0000000 magnetization       8.8000000
 augmentation part      128.0000000 magnetization       8.8000000

[...]

 Broyden mixing:
  rms(total) = 0.34250E+01    rms(broyden)= 0.34249E+01
  rms(prec ) = 0.54023E+01
  weight for this iteration     100.00

[...]

 eigenvalues of (default mixing * dielectric matrix)
  average eigenvalue GAMMA=   0.1887
  0.1887

[...]

 eigenvalue-minimisations  : 15575
 total energy-change (2. order) :-0.1304188E-03  (-0.2706270E-03)
 number of electron     127.9999546 magnetization       9.2174738
 augmentation part       67.7685827 magnetization       6.7804514

[...]

 Broyden mixing:
  rms(total) = 0.27574E-02    rms(broyden)= 0.27573E-02
  rms(prec ) = 0.31568E-02
  weight for this iteration     100.00

 eigenvalues of (default mixing * dielectric matrix)
  average eigenvalue GAMMA=   1.0743
  2.5897  2.5897  1.5430  0.2116  0.2853  0.8963  0.8963  0.8224  0.8224  0.5490
  0.6120

[...]

--------------------------------------- Iteration      1(  17)  ---------------------------------------

 eigenvalue-minimisations  :  8365
 total energy-change (2. order) : 0.2940360E-05  (-0.1619598E-05)
 number of electron     127.9999546 magnetization       9.2291238
 augmentation part       67.7689001 magnetization       6.7897747

 Free energy of the ion-electron system (eV)
  alpha Z        PSCENC =       531.45148950
  Ewald energy   TEWEN  =     -9403.91533155
  -Hartree energ DENC   =     -2819.65718872
  -exchange      EXHF   =         0.00000000
  -V(xc)+E(xc)   XCENC  =        76.01775565
  PAW double counting   =     12970.89194696   -13315.02741202
  entropy T*S    EENTRO =        -0.00128112
  eigenvalues    EBANDS =       627.96878058
  atomic energy  EATOM  =     11229.46195210
  Solvation  Ediel_sol  =         0.00000000
  free energy    TOTEN  =      -102.80928862 eV

  energy without entropy =     -102.80800750  energy(sigma->0) =     -102.80864806

 average (electrostatic) potential at core
  the test charge radii are     0.9791  1.0210  1.4837
  (the norm of the test charge is              1.0000)
       1 -83.8725       2 -83.8725       3 -83.8725       4 -83.8725       5 -83.8725
       6 -83.8725       7 -83.8725       8 -83.8725       9 -42.4351      10 -42.6521
      11 -42.4351      12 -42.6521      13 -42.4351      14 -42.4351      15 -34.5492
      16 -34.5492

 E-fermi :   7.4325     XC(G=0): -12.2925     alpha+bet :-14.1301

 spin component 1

 k-point     1 :       0.0000    0.0000    0.0000
  band No.  band energies     occupation
      1      -1.9874      1.00000
      2       0.5099      1.00000
      3       2.2110      1.00000
      4       2.2110      1.00000
      5       2.2503      1.00000
      6       2.3697      1.00000
      7       2.9728      1.00000
      8       3.0691      1.00000
      9       3.0691      1.00000
     10       3.1133      1.00000
     11       3.1164      1.00000
     12       3.1273      1.00000
     13       3.4339      1.00000
     14       3.7967      1.00000
     15       4.0645      1.00000
     16       4.1977      1.00000
     17       4.2988      1.00000
     18       4.2988      1.00000
     19       4.4017      1.00000
     20       4.4311      1.00000
     21       4.4356      1.00000
     22       4.4356      1.00000
     23       4.4659      1.00000
     24       4.4659      1.00000
     25       4.7720      1.00000
     26       4.9338      1.00000
     27       4.9425      1.00000
     28       4.9425      1.00000
     29       4.9718      1.00000
     30       5.0532      1.00000
     31       5.0532      1.00000
     32       5.0614      1.00000
     33       5.2987      1.00000
     34       5.3975      1.00000
     35       5.3975      1.00000
     36       5.4794      1.00000
     37       5.4945      1.00000
     38       5.4945      1.00000
     39       5.5809      1.00000
     40       5.5809      1.00000
     41       5.6091      1.00000
     42       5.7508      1.00000
     43       5.8172      1.00000
     44       5.8443      1.00000
     45       5.8443      1.00000
     46       5.8844      1.00000
     47       5.8844      1.00000
     48       5.9434      1.00000
     49       5.9901      1.00000
     50       6.0159      1.00000
     51       6.0654      1.00000
     52       6.0778      1.00000
     53       6.1108      1.00000
     54       6.1115      1.00000
     55       6.1405      1.00000
     56       6.3925      1.00000
     57       6.3994      1.00000
     58       6.3994      1.00000
     59       6.4228      1.00000
     60       6.4370      1.00000
[...]
     70       7.0662      1.00000
     71       7.0900      1.00000
     72       7.2498      1.00000
     73       7.2498      1.00000
     74       7.7249      0.00000
     75       7.7249      0.00000
     76       7.9448      0.00000
     77       8.5908      0.00000
     78       8.5908      0.00000
     79       8.6017      0.00000
     80       8.7006      0.00000
     81       8.8543      0.00000
     82       8.9118      0.00000
     83       9.2384      0.00000
     84      10.9048      0.00000

[...]

 spin component 2

[...]

 k-point    40 :       0.4286    0.4286    0.4286
  band No.  band energies     occupation
      1      -0.0861      1.00000
      2      -0.0142      1.00000
      3       1.5641      1.00000
      4       1.6017      1.00000
      5       1.8290      1.00000
      6       2.1914      1.00000
      7       2.3265      1.00000
      8       2.5772      1.00000
      9       3.7661      1.00000
     10       3.7816      1.00000
     11       3.9999      1.00000
     12       4.0215      1.00000
     13       4.1297      1.00000
     14       4.1554      1.00000
     15       4.2431      1.00000
     16       4.2544      1.00000
     17       4.2618      1.00000
     18       4.2836      1.00000
     19       4.7024      1.00000
     20       4.7083      1.00000
     21       4.7622      1.00000
     22       4.7747      1.00000
     23       4.9831      1.00000
     24       5.0428      1.00000
     25       5.0849      1.00000
     26       5.1752      1.00000
     27       5.3104      1.00000
     28       5.3160      1.00000
     29       5.3786      1.00000
     30       5.3795      1.00000
     31       5.3939      1.00000
     32       5.3969      1.00000
     33       5.4313      1.00000
     34       5.4504      1.00000
     35       5.4521      1.00000
     36       5.4641      1.00000
     37       5.4770      1.00000
     38       5.4871      1.00000
     39       5.5270      1.00000
     40       5.5316      1.00000
     41       5.5354      1.00000
     42       5.5876      1.00000
     43       5.8171      1.00000
     44       5.8434      1.00000
     45       5.8519      1.00000
     46       5.9011      1.00000
     47       5.9294      1.00000
     48       5.9539      1.00000
     49       6.1486      1.00000
     50       6.1540      1.00000
     51       6.2269      1.00000
     52       6.2314      1.00000
     53       6.4224      1.00000
     54       6.4985      1.00000
     55       6.5054      1.00000
     56       6.6776      1.00000
     57       6.6877      1.00000
     58       6.7795      1.00000
     59       8.1430      0.00000
     60       8.1545      0.00000
[...]
     70       8.5146      0.00000
     71       8.5181      0.00000
     72       8.5566      0.00000
     73       8.6252      0.00000
     74       8.6724      0.00000
     75       8.7948      0.00000
     76       8.8883      0.00000
     77       9.0291      0.00000
     78       9.0853      0.00000
     79      11.1341      0.00000
     80      11.1783      0.00000
     81      11.6780      0.00000
     82      11.6984      0.00000
     83      12.1683      0.00000
     84      12.3308      0.00000

 soft charge-density along one line, spin component           1
         0         1         2         3         4         5         6         7         8         9
 total charge-density along one line

 soft charge-density along one line, spin component           2
         0         1         2         3         4         5         6         7         8         9
 total charge-density along one line

------------------------ aborting loop because EDIFF is reached ----------------------------------------

 total charge

# of ion       s       p       d       tot
    1        0.465   0.423   8.397   9.285
    2        0.464   0.418   8.402   9.285
    3        0.467   0.419   8.386   9.272
    4        0.465   0.421   8.367   9.253
    5        0.465   0.421   8.367   9.253
    6        0.467   0.419   8.386   9.272
    7        0.464   0.418   8.402   9.285
    8        0.465   0.423   8.397   9.285
    9        0.325   0.314   4.927   5.566
   10        0.336   0.327   4.898   5.561
   11        0.335   0.325   4.919   5.580
   12        0.336   0.327   4.898   5.561
   13        0.335   0.325   4.919   5.580
   14        0.325   0.314   4.927   5.566
   15        1.264   1.835   0.353   3.452
   16        1.264   1.835   0.353   3.452
tot          8.245   8.965  97.297 114.507

 magnetization (x)

[...]

  FORCE on cell =-STRESS in cart. coord.  units (eV):
  Direction    XX          YY          ZZ          XY          YZ          ZX
  Alpha Z   531.45149   531.45149   531.45149
  Ewald   -3134.64784 -3134.64784 -3134.64784    -0.00000    -0.00000     0.00000
  Hartree   939.26095   939.26095   941.08322    -0.00000    -0.00000    -0.00000
  E(xc)    -671.24514  -671.24514  -671.91003    -0.00000    -0.00000     0.00000
  Local    -159.60386  -159.60386  -167.38032    -0.00000    -0.00000     0.00000
  n-local  -147.08103  -143.17449  -145.55663    -0.32360    -0.69368     0.03006
  augment  1578.79348  1578.79348  1583.32525    -0.00000    -0.00000     0.00000
  Kinetic  1051.87963  1066.73824  1067.29176     1.56074     1.21151     1.01461
  Fock        0.00000     0.00000     0.00000     0.00000     0.00000     0.00000
  Total      -1.80974    -1.80974     3.65690     0.00000     0.00000    -0.00000
  in kB     -13.69438   -13.69438    27.67196     0.00000     0.00000    -0.00000

 VOLUME and BASIS-vectors are now :
  energy-cutoff  :      550.00
  volume of cell :      211.73
      direct lattice vectors                 reciprocal lattice vectors
     5.960205622  0.000000000  0.000000000     0.167779446  0.000000000  0.000000000
     0.000000000  5.960205622  0.000000000     0.000000000  0.167779446  0.000000000
     0.000000000  0.000000000  5.960205622     0.000000000  0.000000000  0.167779446

  length of vectors
     5.960205622  5.960205622  5.960205622     0.167779446  0.167779446  0.167779446

 FORCES acting on ions
    electron-ion (+dipol)            ewald-force                    non-local-force                 convergence-correction
   0.107E-11 0.564E-12 0.833E-12   0.782E-13 0.000E+00 -.284E-13   0.000E+00 0.529E-22 0.000E+00   -.240E-13 0.219E-13 -.283E-12
   -.210E-12 -.718E-12 -.146E-11   0.497E-13 0.284E-13 -.284E-13   -.662E-22 -.529E-22 0.000E+00   0.481E-13 0.440E-13 -.315E-12
   0.699E-12 0.342E-11 0.808E-12   0.639E-13 0.533E-13 -.355E-13   0.000E+00 0.000E+00 0.000E+00   -.110E-13 0.144E-13 -.246E-12
   0.672E-12 0.413E-11 -.816E-11   0.639E-13 0.391E-13 0.249E-13   0.000E+00 -.529E-22 -.529E-22   0.288E-13 0.140E-13 -.260E-12
   0.674E-12 0.551E-12 0.204E-11   0.782E-13 0.107E-13 -.320E-13   0.529E-22 -.529E-22 0.000E+00   -.317E-13 0.419E-13 0.158E-12
   0.561E-12 -.131E-11 0.607E-11   0.497E-13 0.249E-13 -.497E-13   0.000E+00 0.000E+00 0.000E+00   0.399E-13 0.207E-13 0.219E-12
   0.469E-12 0.391E-11 0.182E-11   0.639E-13 0.568E-13 -.426E-13   -.132E-22 -.529E-22 0.251E-21   -.385E-13 0.131E-13 0.153E-12
   0.175E-11 -.372E-11 0.646E-11   0.639E-13 0.284E-13 -.284E-13   0.000E+00 0.000E+00 0.000E+00   0.446E-13 0.244E-13 0.182E-12
   0.225E-12 0.747E-14 -.961E-12   -.883E-13 -.406E-13 -.289E-13   0.265E-22 0.159E-21 -.794E-22   -.497E-13 0.505E-13 0.459E-13
   0.211E-12 0.157E-12 0.198E-12   -.872E-13 -.414E-13 0.282E-13   0.000E+00 0.000E+00 0.265E-22   -.411E-13 -.635E-13 0.387E-13
   -.310E-13 0.188E-12 -.728E-13   -.810E-13 -.392E-13 0.279E-13   -.265E-22 0.265E-22 -.529E-22   0.819E-13 -.533E-13 0.651E-13
   -.368E-13 -.250E-13 0.208E-12   -.881E-13 -.571E-13 0.443E-13   0.000E+00 0.000E+00 0.000E+00   0.101E-12 0.399E-13 -.294E-13
   0.223E-12 -.109E-13 0.890E-12   -.846E-13 -.611E-13 0.435E-13   0.126E-21 0.265E-22 -.529E-22   -.681E-13 0.382E-13 -.644E-13
   -.297E-13 0.189E-12 0.197E-12   -.843E-13 -.434E-13 0.293E-13   0.265E-22 -.106E-21 -.794E-22   0.111E-12 -.260E-13 -.304E-13
   -.337E-13 -.563E-14 -.212E-13   0.293E-13 0.671E-14 0.123E-13   0.000E+00 0.000E+00 0.000E+00   0.186E-13 0.190E-13 0.172E-13
   -.305E-13 -.262E-12 -.633E-12   0.306E-13 0.788E-14 0.136E-13   0.000E+00 0.000E+00 0.000E+00   -.221E-13 -.160E-13 -.171E-13
   0.619E-11 0.706E-11 0.822E-11   0.580E-13 -.268E-13 -.502E-13   0.126E-21 -.529E-22 -.397E-22   0.188E-12 0.183E-12 -.365E-12

 POSITION                                       TOTAL-FORCE (eV/Angst)
      1.49005      1.49005      1.49005         0.000000     -0.000000      0.000000
      4.47015      1.49005      1.49005         0.000000      0.000000      0.000000
      1.49005      4.47015      1.49005         0.000000     -0.000000     -0.000000
      4.47015      4.47015      1.49005         0.000000     -0.000000     -0.000000
      1.49005      1.49005      4.47015        -0.000000      0.000000      0.000000
      4.47015      1.49005      4.47015        -0.000000      0.000000     -0.000000
      1.49005      4.47015      4.47015        -0.000000     -0.000000      0.000000
      4.47015      4.47015      4.47015        -0.000000     -0.000000     -0.000000
      2.98010      0.00000      0.00000        -0.000000      0.000000      0.000000
      2.98010      2.98010      0.00000        -0.000000      0.000000      0.000000
      0.00000      2.98010      0.00000        -0.000000      0.000000      0.000000
      0.00000      0.00000      2.98010        -0.000000      0.000000      0.000000
      2.98010      0.00000      2.98010        -0.000000      0.000000      0.000000
      0.00000      2.98010      2.98010        -0.000000      0.000000      0.000000
      0.00000      0.00000      0.00000        -0.000000      0.000000      0.000000
      2.98010      2.98010      2.98010        -0.000000      0.000000      0.000000
    total drift:                                0.000000      0.000000      0.000000

  FREE ENERGIE OF THE ION-ELECTRON SYSTEM (eV)
  free  energy   TOTEN  =      -102.80928862 eV

  energy  without entropy=     -102.80800750  energy(sigma->0) =     -102.80864806

 reached required accuracy - stopping structural energy minimisation

 total charge

[...]

 magnetization (x)

# of ion       s       p       d       tot
    1       -0.005  -0.002   0.237   0.230
    2       -0.006  -0.007   0.217   0.204
    3       -0.004  -0.006   0.224   0.214
    4       -0.005   0.005   0.262   0.262
    5       -0.005   0.005   0.262   0.262
    6       -0.004  -0.006   0.224   0.214
    7       -0.006  -0.007   0.217   0.204
    8       -0.005  -0.002   0.237   0.230
    9        0.028   0.035   3.549   3.612
   10       -0.031  -0.063  -3.511  -3.605
   11        0.028   0.046   3.521   3.596
   12       -0.031  -0.063  -3.511  -3.605
   13        0.028   0.046   3.521   3.596
   14        0.028   0.035   3.549   3.612
   15       -0.001  -0.032  -0.006  -0.039
   16       -0.001  -0.032  -0.006  -0.039
tot          0.006  -0.047   8.986   8.944