 vasp.5.4.4.18Apr17-6-g9f103f2a35 (build May 21 2018 20:56:50) complex
 executed on             LinuxGNU date 2021.10.15  15:45:48

 INCAR:
 POTCAR:    PAW_PBE Ni 02Aug2007
 POTCAR:    PAW_PBE Mn 06Sep2000
 POTCAR:    PAW_PBE In 08Apr2002

 POTCAR:    PAW_PBE Ni 02Aug2007
   VRHFIN =Ni:

   TITEL  = PAW_PBE Ni 02Aug2007
   POMASS =   58.690; ZVAL   =   10.000    mass and valenz
   ENMAX  =  269.532; ENMIN  =  202.149 eV

 POTCAR:    PAW_PBE Mn 06Sep2000
   VRHFIN =Mn: d6 s1

   TITEL  = PAW_PBE Mn 06Sep2000
   POMASS =   54.938; ZVAL   =    7.000    mass and valenz
   ENMAX  =  269.864; ENMIN  =  202.398 eV

 POTCAR:    PAW_PBE In 08Apr2002
   VRHFIN =In: s2p1

   TITEL  = PAW_PBE In 08Apr2002
   POMASS =  114.820; ZVAL   =    3.000    mass and valenz
   ENMAX  =   95.934; ENMIN  =   71.951 eV

 Optimization of the real space projectors (new method)

 maximal supplied QI-value         = 16.25
 optimisation between [QCUT,QGAM] = [ 11.86, 23.89] = [ 39.41,159.82] Ry
 Optimized for a Real-space Cutoff    1.33 Angstroem

   l    n(q)    QCUT    max X(q) W(low)/X(q) W(high)/X(q)  e(spline)
   2      9    11.864    60.317    0.21E-03    0.51E-03    0.25E-06
   2      9    11.864    55.921    0.21E-03    0.51E-03    0.26E-06
   0      9    11.864    51.690    0.22E-03    0.30E-04    0.17E-06
   0      9    11.864    30.015    0.20E-03    0.28E-04    0.15E-06
   1      9    11.864    18.849    0.76E-04    0.33E-03    0.17E-06
   1      9    11.864    14.624    0.60E-04    0.28E-03    0.15E-06
 Optimization of the real space projectors (new method)

[...]

   l    n(q)    QCUT    max X(q) W(low)/X(q) W(high)/X(q)  e(spline)
   2      9    11.864   110.144    0.49E-03    0.50E-03    0.21E-06
   2      9    11.864   103.200    0.49E-03    0.51E-03    0.22E-06
   0     10    11.864    68.437    0.12E-03    0.41E-04    0.21E-06
   0     10    11.864    33.971    0.11E-03    0.36E-04    0.19E-06
   1      9    11.864    17.065    0.24E-03    0.26E-03    0.93E-07
   1      9    11.864    12.540    0.19E-03    0.20E-03    0.80E-07
 Optimization of the real space projectors (new method)

 maximal supplied QI-value         = 12.09
 optimisation between [QCUT,QGAM] = [ 11.97, 23.95] = [ 40.14,160.58] Ry
 Optimized for a Real-space Cutoff    1.63 Angstroem

   l    n(q)    QCUT    max X(q) W(low)/X(q) W(high)/X(q)  e(spline)
   0     12    11.973   106.980    0.33E-03    0.16E-03    0.25E-05
   0     12    11.973    81.086    0.37E-03    0.18E-03    0.28E-05
   1     11    11.973    53.097    0.22E-03    0.42E-03    0.40E-05
   1     11    11.973    32.621    0.20E-03    0.40E-03    0.37E-05
   2     11    11.973     8.820    0.30E-03    0.17E-03    0.41E-06
  PAW_PBE Ni 02Aug2007                  :
  PAW_PBE Mn 06Sep2000                  :
  PAW_PBE In 08Apr2002                  :

 POSCAR: Ni2MnIn
  positions in direct lattice
  velocities in cartesian coordinates
 exchange correlation table for  LEXCH =        8
   RHO(1)=    0.500       N(1)  =     2000
   RHO(2)=  100.500       N(2)  =     4000

 ion  position               nearest neighbor table
   1  0.250  0.250  0.271-  11 2.51  14 2.51  12 2.51  13 2.51  15 2.66  10 2.66   9 2.66  16 2.66
                             5 2.73   2 2.98   3 2.98   3 2.98   2 2.98
   2  0.750  0.250  0.271-  11 2.51  14 2.51  12 2.51  13 2.51  15 2.66  10 2.66   9 2.66  16 2.66
                             6 2.73   1 2.98   4 2.98   4 2.98   1 2.98
   3  0.250  0.750  0.271-  11 2.51  14 2.51  12 2.51  13 2.51  15 2.66  10 2.66   9 2.66  16 2.66
                             7 2.73   4 2.98   1 2.98   1 2.98   4 2.98
   4  0.750  0.750  0.271-  11 2.51  14 2.51  12 2.51  13 2.51  15 2.66  10 2.66   9 2.66  16 2.66
                             8 2.73   3 2.98   2 2.98   2 2.98   3 2.98
   5  0.250  0.250  0.729-  11 2.51  14 2.51  12 2.51  13 2.51  15 2.66  10 2.66   9 2.66  16 2.66
                             1 2.73   6 2.98   7 2.98   7 2.98   6 2.98
   6  0.750  0.250  0.729-  11 2.51  14 2.51  12 2.51  13 2.51  15 2.66  10 2.66   9 2.66  16 2.66
                             2 2.73   5 2.98   8 2.98   8 2.98   5 2.98
   7  0.250  0.750  0.729-  11 2.51  14 2.51  12 2.51  13 2.51  15 2.66  10 2.66   9 2.66  16 2.66
                             3 2.73   8 2.98   5 2.98   5 2.98   8 2.98
   8  0.750  0.750  0.729-  11 2.51  14 2.51  12 2.51  13 2.51  15 2.66  10 2.66   9 2.66  16 2.66
                             4 2.73   7 2.98   6 2.98   6 2.98   7 2.98
   9  0.500  0.000  0.000-   1 2.66   2 2.66   3 2.66   4 2.66   5 2.66   6 2.66   7 2.66   8 2.66
                            12 2.98  15 2.98  16 2.98  12 2.98  16 2.98  15 2.98
  10  0.000  0.500  0.000-   1 2.66   2 2.66   3 2.66   4 2.66   5 2.66   6 2.66   7 2.66   8 2.66
                            14 2.98  15 2.98  16 2.98  14 2.98  15 2.98  16 2.98
  11  0.000  0.000  0.500-   1 2.51   2 2.51   3 2.51   4 2.51   5 2.51   6 2.51   7 2.51   8 2.51
                            12 2.98  14 2.98  15 2.98  15 2.98  14 2.98  12 2.98
  12  0.500  0.000  0.500-   1 2.51   2 2.51   3 2.51   4 2.51   5 2.51   6 2.51   7 2.51   8 2.51
                             9 2.98  11 2.98  13 2.98   9 2.98  13 2.98  11 2.98
  13  0.500  0.500  0.500-   1 2.51   2 2.51   3 2.51   4 2.51   5 2.51   6 2.51   7 2.51   8 2.51
                            12 2.98  14 2.98  16 2.98  16 2.98  12 2.98  14 2.98
  14  0.000  0.500  0.500-   1 2.51   2 2.51   3 2.51   4 2.51   5 2.51   6 2.51   7 2.51   8 2.51
                            10 2.98  11 2.98  13 2.98  10 2.98  11 2.98  13 2.98
  15  0.000  0.000  0.000-   1 2.66   2 2.66   3 2.66   4 2.66   5 2.66   6 2.66   7 2.66   8 2.66
                             9 2.98  10 2.98  11 2.98  11 2.98  10 2.98   9 2.98
  16  0.500  0.500  0.000-   1 2.66   2 2.66   3 2.66   4 2.66   5 2.66   6 2.66   7 2.66   8 2.66
                             9 2.98  10 2.98  13 2.98  13 2.98   9 2.98  10 2.98

  LATTYP: Found a simple cubic cell.
 ALAT       =     5.9587790710

  Lattice vectors:

 A1 = (   5.9587790710,   0.0000000000,   0.0000000000)
 A2 = (   0.0000000000,   5.9587790710,   0.0000000000)
 A3 = (   0.0000000000,   0.0000000000,   5.9587790710)

Analysis of symmetry for initial positions (statically):
 Subroutine PRICEL returns:
 Original cell was already a primitive cell.

 Routine SETGRP: Setting up the symmetry group for a
 simple cubic supercell.

 Subroutine GETGRP returns: Found  8 space group operations
 (whereof  8 operations were pure point group operations)
 out of a pool of 48 trial point group operations.

The static configuration has the point symmetry D_2h.

Analysis of symmetry for dynamics (positions and initial velocities):
 Subroutine PRICEL returns:
 Original cell was already a primitive cell.

[...]

The dynamic configuration has the point symmetry D_2h.

Analysis of structural, dynamic, and magnetic symmetry:
 Subroutine PRICEL returns:
 Original cell was already a primitive cell.

 Routine SETGRP: Setting up the symmetry group for a
 simple cubic supercell.

 Subroutine GETGRP returns: Found  8 space group operations
 (whereof  8 operations were pure point group operations)
 out of a pool of 48 trial point group operations.

The magnetic configuration has the point symmetry D_2h.

 Subroutine INISYM returns: Found  8 space group operations
 (whereof  8 operations are pure point group operations),
 and found     1 'primitive' translations

 KPOINTS: k-points

Automatic generation of k-mesh.
Space group operators:
 irot       det(A)        alpha          n_x          n_y          n_z        tau_x        tau_y        tau_z
    1     1.000000     0.000000     1.000000     0.000000     0.000000     0.000000     0.000000     0.000000
    2    -1.000000     0.000000     1.000000     0.000000     0.000000     0.000000     0.000000     0.000000
    3     1.000000   180.000000     0.000000     0.000000     1.000000     0.000000     0.000000     0.000000
    4    -1.000000   180.000000     0.000000     0.000000     1.000000     0.000000     0.000000     0.000000
    5     1.000000   180.000000     1.000000     0.000000     0.000000     0.000000     0.000000     0.000000
    6    -1.000000   180.000000     1.000000     0.000000     0.000000     0.000000     0.000000     0.000000
    7     1.000000   180.000000     0.000000     1.000000     0.000000     0.000000     0.000000     0.000000
    8    -1.000000   180.000000     0.000000     1.000000     0.000000     0.000000     0.000000     0.000000

 Subroutine IBZKPT returns following result:

 Found     64 irreducible k-points:

 Following reciprocal coordinates:
            Coordinates               Weight
  0.000000  0.000000  0.000000      1.000000
  0.142857  0.000000  0.000000      2.000000
  0.285714  0.000000  0.000000      2.000000
  0.428571  0.000000  0.000000      2.000000
  0.000000  0.142857  0.000000      2.000000
  0.142857  0.142857  0.000000      4.000000
  0.285714  0.142857  0.000000      4.000000
  0.428571  0.142857  0.000000      4.000000
  0.000000  0.285714  0.000000      2.000000
  0.142857  0.285714  0.000000      4.000000
  0.285714  0.285714  0.000000      4.000000
  0.428571  0.285714  0.000000      4.000000
  0.000000  0.428571  0.000000      2.000000
  0.142857  0.428571  0.000000      4.000000
  0.285714  0.428571  0.000000      4.000000
  0.428571  0.428571  0.000000      4.000000
  0.000000  0.000000  0.142857      2.000000
  0.142857  0.000000  0.142857      4.000000
  0.285714  0.000000  0.142857      4.000000
  0.428571  0.000000  0.142857      4.000000
  0.000000  0.142857  0.142857      4.000000
  0.142857  0.142857  0.142857      8.000000
  0.285714  0.142857  0.142857      8.000000
  0.428571  0.142857  0.142857      8.000000
  0.000000  0.285714  0.142857      4.000000
  0.142857  0.285714  0.142857      8.000000
  0.285714  0.285714  0.142857      8.000000
  0.428571  0.285714  0.142857      8.000000
  0.000000  0.428571  0.142857      4.000000
  0.142857  0.428571  0.142857      8.000000
  0.285714  0.428571  0.142857      8.000000
  0.428571  0.428571  0.142857      8.000000
  0.000000  0.000000  0.285714      2.000000
  0.142857  0.000000  0.285714      4.000000
  0.285714  0.000000  0.285714      4.000000
  0.428571  0.000000  0.285714      4.000000
  0.000000  0.142857  0.285714      4.000000
  0.142857  0.142857  0.285714      8.000000
  0.285714  0.142857  0.285714      8.000000
  0.428571  0.142857  0.285714      8.000000
  0.000000  0.285714  0.285714      4.000000
  0.142857  0.285714  0.285714      8.000000
  0.285714  0.285714  0.285714      8.000000
  0.428571  0.285714  0.285714      8.000000
  0.000000  0.428571  0.285714      4.000000
  0.142857  0.428571  0.285714      8.000000
  0.285714  0.428571  0.285714      8.000000
  0.428571  0.428571  0.285714      8.000000
  0.000000  0.000000  0.428571      2.000000
  0.142857  0.000000  0.428571      4.000000
  0.285714  0.000000  0.428571      4.000000
  0.428571  0.000000  0.428571      4.000000
  0.000000  0.142857  0.428571      4.000000
  0.142857  0.142857  0.428571      8.000000
  0.285714  0.142857  0.428571      8.000000
  0.428571  0.142857  0.428571      8.000000
  0.000000  0.285714  0.428571      4.000000
[...]
  Fock        0.00000     0.00000     0.00000     0.00000     0.00000     0.00000
  Total       0.13083    -3.04649     0.71874     0.00000     0.00000     0.00000
  in kB       0.99073   -23.06949     5.44269     0.00000     0.00000     0.00000

 VOLUME and BASIS-vectors are now :
  energy-cutoff  :      550.00
  volume of cell :      211.58
      direct lattice vectors                 reciprocal lattice vectors
     5.958779071  0.000000000  0.000000000     0.167819613  0.000000000  0.000000000
     0.000000000  5.958779071  0.000000000     0.000000000  0.167819613  0.000000000
     0.000000000  0.000000000  5.958779071     0.000000000  0.000000000  0.167819613

[...]

 FORCES acting on ions
    electron-ion (+dipol)            ewald-force                    non-local-force                 convergence-correction
   -.910E-01 -.403E-01 0.192E+03   0.778E-01 0.442E-01 -.189E+03   -.399E-03 0.498E-04 -.246E+01   0.133E-01 -.375E-02 -.670E-02
   0.910E-01 -.403E-01 0.192E+03   -.778E-01 0.442E-01 -.189E+03   0.399E-03 0.498E-04 -.246E+01   -.133E-01 -.375E-02 -.670E-02
   -.910E-01 0.403E-01 0.192E+03   0.778E-01 -.442E-01 -.189E+03   -.399E-03 -.498E-04 -.246E+01   0.133E-01 0.375E-02 -.670E-02
   0.910E-01 0.403E-01 0.192E+03   -.778E-01 -.442E-01 -.189E+03   0.399E-03 -.498E-04 -.246E+01   -.133E-01 0.375E-02 -.670E-02
   -.910E-01 -.403E-01 -.192E+03   0.778E-01 0.442E-01 0.189E+03   -.399E-03 0.498E-04 0.246E+01   0.133E-01 -.375E-02 0.670E-02
   0.910E-01 -.403E-01 -.192E+03   -.778E-01 0.442E-01 0.189E+03   0.399E-03 0.498E-04 0.246E+01   -.133E-01 -.375E-02 0.670E-02
   -.910E-01 0.403E-01 -.192E+03   0.778E-01 -.442E-01 0.189E+03   -.399E-03 -.498E-04 0.246E+01   0.133E-01 0.375E-02 0.670E-02
   0.910E-01 0.403E-01 -.192E+03   -.778E-01 -.442E-01 0.189E+03   0.399E-03 -.498E-04 0.246E+01   -.133E-01 0.375E-02 0.670E-02
   0.223E-12 0.702E-14 -.594E-12   -.741E-13 -.233E-13 -.234E-13   0.000E+00 0.000E+00 0.000E+00   -.409E-13 0.326E-13 0.454E-13
   -.193E-13 0.210E-12 -.479E-13   -.492E-13 0.137E-13 -.205E-14   0.000E+00 0.000E+00 0.000E+00   -.422E-13 -.593E-13 0.442E-13
   -.308E-13 -.546E-13 0.201E-12   -.115E-12 0.448E-13 0.161E-13   0.000E+00 0.000E+00 0.000E+00   0.191E-13 0.391E-13 -.164E-13
   0.208E-12 -.428E-13 0.166E-11   0.695E-13 0.296E-13 0.296E-14   0.000E+00 0.000E+00 0.000E+00   -.249E-13 0.399E-13 -.653E-13
   0.212E-12 0.184E-12 0.102E-11   -.270E-13 0.112E-12 -.549E-13   0.000E+00 0.000E+00 0.000E+00   0.389E-13 -.389E-13 -.619E-13
   -.306E-13 0.200E-12 0.195E-12   0.916E-14 -.595E-13 0.296E-14   0.000E+00 0.000E+00 0.000E+00   -.388E-13 -.453E-13 -.143E-13
   0.892E-14 -.215E-13 -.974E-14   0.113E-13 -.164E-13 -.297E-14   0.000E+00 0.000E+00 0.000E+00   0.621E-14 0.145E-13 0.116E-13
   0.768E-14 -.494E-12 0.251E-13   0.305E-13 0.271E-14 -.653E-14   0.000E+00 0.000E+00 0.000E+00   0.554E-14 -.131E-13 0.130E-13
   0.174E-10 -.610E-11 0.694E-10   0.154E-13 0.645E-13 0.458E-13   -.694E-17 0.000E+00 0.000E+00   0.161E-12 0.121E-12 -.498E-12

 POSITION                                       TOTAL-FORCE (eV/Angst)
      1.48961      1.48964      1.61642        -0.000315      0.000269      0.011139
      4.46917      1.48964      1.61642         0.000315      0.000269      0.011139
      1.48961      4.46914      1.61642        -0.000315     -0.000269      0.011139
      4.46917      4.46914      1.61642         0.000315     -0.000269      0.011139
      1.48961      1.48964      4.34236        -0.000315      0.000269     -0.011139
      4.46917      1.48964      4.34236         0.000315      0.000269     -0.011139
      1.48961      4.46914      4.34236        -0.000315     -0.000269     -0.011139
      4.46917      4.46914      4.34236         0.000315     -0.000269     -0.011139
      2.97939      0.00000      0.00000        -0.000000      0.000000     -0.000000
      0.00000      2.97939      0.00000        -0.000000      0.000000     -0.000000
      0.00000      0.00000      2.97939        -0.000000      0.000000     -0.000000
      2.97939      0.00000      2.97939        -0.000000      0.000000     -0.000000
      2.97939      2.97939      2.97939        -0.000000      0.000000     -0.000000
      0.00000      2.97939      2.97939        -0.000000      0.000000     -0.000000
      0.00000      0.00000      0.00000        -0.000000      0.000000     -0.000000
      2.97939      2.97939      0.00000        -0.000000      0.000000     -0.000000
    total drift:                                0.000000     -0.000000      0.000000

  FREE ENERGIE OF THE ION-ELECTRON SYSTEM (eV)
  free  energy   TOTEN  =      -103.24921007 eV

  energy  without entropy=     -103.24662407  energy(sigma->0) =     -103.24791707

[...]

 eigenvalue-minimisations  : 21476
 total energy-change (2. order) :-0.2702487E-04  (-0.1963581E-04)
 number of electron     128.0000044 magnetization      -0.0000696
 augmentation part       67.7635903 magnetization       0.0003319

[...]

 Broyden mixing:
  rms(total) = 0.19736E-02    rms(broyden)= 0.19734E-02
  rms(prec ) = 0.26389E-02
  weight for this iteration     100.00

 eigenvalues of (default mixing * dielectric matrix)
  average eigenvalue GAMMA=   0.3129
  0.3129  0.3129

[...]

--------------------------------------- Iteration      2(   4)  ---------------------------------------

 eigenvalue-minimisations  : 11282
 total energy-change (2. order) : 0.8751158E-07  (-0.8712137E-06)
 number of electron     128.0000044 magnetization      -0.0001276
 augmentation part       67.7599753 magnetization      -0.0001237

 Free energy of the ion-electron system (eV)
  alpha Z        PSCENC =       531.83327457
  Ewald energy   TEWEN  =     -9262.08202819
  -Hartree energ DENC   =     -2963.78883315
  -exchange      EXHF   =         0.00000000
  -V(xc)+E(xc)   XCENC  =        75.52985091
  PAW double counting   =     12909.34792935   -13253.56700630
  entropy T*S    EENTRO =        -0.00258834
  eigenvalues    EBANDS =       630.01820373
  atomic energy  EATOM  =     11229.46195210
  Solvation  Ediel_sol  =         0.00000000
  free energy    TOTEN  =      -103.24924534 eV

  energy without entropy =     -103.24665699  energy(sigma->0) =     -103.24795117

 average (electrostatic) potential at core
  the test charge radii are     0.9791  1.0210  1.4837
  (the norm of the test charge is              1.0000)
       1 -83.8982       2 -83.8982       3 -83.8982       4 -83.8982       5 -83.8982
       6 -83.8982       7 -83.8982       8 -83.8982       9 -42.3817      10 -42.3814
      11 -42.4557      12 -42.2638      13 -42.4557      14 -42.2638      15 -34.6376
      16 -34.6378

 E-fermi :   7.3242     XC(G=0): -12.2932     alpha+bet :-14.1403

[...]

 spin component 2

[...]

 k-point    64 :       0.4286    0.4286    0.4286
  band No.  band energies     occupation
      1       0.0306      1.00000
      2       0.2298      1.00000
      3       1.4415      1.00000
      4       1.5843      1.00000
      5       1.8195      1.00000
      6       1.8755      1.00000
      7       2.3356      1.00000
      8       2.6534      1.00000
      9       3.6957      1.00000
     10       3.7490      1.00000
     11       3.8737      1.00000
     12       3.9672      1.00000
     13       4.0264      1.00000
     14       4.1343      1.00000
     15       4.1565      1.00000
     16       4.1607      1.00000
     17       4.2081      1.00000
     18       4.2564      1.00000
     19       4.3006      1.00000
     20       4.3940      1.00000
     21       4.4112      1.00000
     22       4.4204      1.00000
     23       4.5213      1.00000
     24       4.5319      1.00000
     25       4.6917      1.00000
     26       4.7794      1.00000
     27       4.8214      1.00000
     28       4.9003      1.00000
     29       4.9842      1.00000
     30       5.0888      1.00000
     31       5.1187      1.00000
     32       5.2036      1.00000
     33       5.2221      1.00000
     34       5.2687      1.00000
     35       5.3091      1.00000
     36       5.3391      1.00000
     37       5.3772      1.00000
     38       5.3932      1.00000
     39       5.4419      1.00000
     40       5.4797      1.00000
     41       5.5156      1.00000
     42       5.5659      1.00000
     43       5.6554      1.00000
     44       5.6891      1.00000
     45       5.7257      1.00000
     46       5.7519      1.00000
     47       5.9454      1.00000
     48       5.9749      1.00000
     49       6.0514      1.00000
     50       6.1725      1.00000
     51       6.1825      1.00000
     52       6.2860      1.00000
     53       6.3076      1.00000
     54       6.3368      1.00000
     55       6.3811      1.00000
     56       6.4512      1.00000
     57       6.5094      1.00000
     58       6.5675      1.00000
     59       6.5765      1.00000
     60       6.6572      1.00000
[...]
     70       8.4623      0.00000
     71       8.4898      0.00000
     72       8.5279      0.00000
     73       8.5923      0.00000
     74       8.6852      0.00000
     75       8.7071      0.00000
     76       8.7662      0.00000
     77       8.8763      0.00000
     78       8.8995      0.00000
     79      10.9214      0.00000
     80      11.4306      0.00000
     81      11.5801      0.00000
     82      11.7478      0.00000
     83      11.8000      0.00000
     84      12.1122      0.00000

[...]

 soft charge-density along one line, spin component           2
         0         1         2         3         4         5         6         7         8         9
 total charge-density along one line

------------------------ aborting loop because EDIFF is reached ----------------------------------------

[...]

  FORCE on cell =-STRESS in cart. coord.  units (eV):
  Direction    XX          YY          ZZ          XY          YZ          ZX
  Alpha Z   531.83327   531.83327   531.83327
  Ewald   -2945.34649 -2945.34642 -3371.41649     0.00000     0.00000     0.00000
  Hartree  1119.73875  1118.32318   725.82223    -0.00000    -0.00000    -0.00000
  E(xc)    -670.82068  -670.29554  -671.06973    -0.00000     0.00000    -0.00000
  Local    -532.14245  -526.40837   288.49804     0.00000    -0.00000     0.00000
  n-local  -148.79177  -150.16605  -147.71237    -0.10568    -0.39463    -0.19076
  augment  1579.83184  1578.19877  1578.94954     0.00000     0.00000    -0.00000
  Kinetic  1065.85307  1060.83550  1065.75670     1.39096     1.45149    -0.27007
  Fock        0.00000     0.00000     0.00000     0.00000     0.00000     0.00000
  Total       0.15556    -3.02564     0.66118     0.00000     0.00000     0.00000
  in kB       1.17795   -22.91166     5.00675     0.00000     0.00000     0.00000

 VOLUME and BASIS-vectors are now :
  energy-cutoff  :      550.00
  volume of cell :      211.58
      direct lattice vectors                 reciprocal lattice vectors
     5.958779071  0.000000000  0.000000000     0.167819613  0.000000000  0.000000000
     0.000000000  5.958779071  0.000000000     0.000000000  0.167819613  0.000000000
     0.000000000  0.000000000  5.958779071     0.000000000  0.000000000  0.167819613

  length of vectors
     5.958779071  5.958779071  5.958779071     0.167819613  0.167819613  0.167819613

 FORCES acting on ions
    electron-ion (+dipol)            ewald-force                    non-local-force                 convergence-correction
   -.919E-01 -.326E-01 0.192E+03   0.922E-01 0.318E-01 -.190E+03   0.109E-02 -.539E-03 -.248E+01   -.222E-03 0.172E-02 0.117E-01
   0.919E-01 -.326E-01 0.192E+03   -.922E-01 0.318E-01 -.190E+03   -.109E-02 -.539E-03 -.248E+01   0.222E-03 0.172E-02 0.117E-01
   -.919E-01 0.326E-01 0.192E+03   0.922E-01 -.318E-01 -.190E+03   0.109E-02 0.539E-03 -.248E+01   -.222E-03 -.172E-02 0.117E-01
   0.919E-01 0.326E-01 0.192E+03   -.922E-01 -.318E-01 -.190E+03   -.109E-02 0.539E-03 -.248E+01   0.222E-03 -.172E-02 0.117E-01
   -.919E-01 -.326E-01 -.192E+03   0.922E-01 0.318E-01 0.190E+03   0.109E-02 -.539E-03 0.248E+01   -.222E-03 0.172E-02 -.117E-01
   0.919E-01 -.326E-01 -.192E+03   -.922E-01 0.318E-01 0.190E+03   -.109E-02 -.539E-03 0.248E+01   0.222E-03 0.172E-02 -.117E-01
   -.919E-01 0.326E-01 -.192E+03   0.922E-01 -.318E-01 0.190E+03   0.109E-02 0.539E-03 0.248E+01   -.222E-03 -.172E-02 -.117E-01
   0.919E-01 0.326E-01 -.192E+03   -.922E-01 -.318E-01 0.190E+03   -.109E-02 0.539E-03 0.248E+01   0.222E-03 -.172E-02 -.117E-01
   0.197E-12 0.521E-13 -.568E-12   -.101E-13 -.910E-14 -.518E-13   0.000E+00 0.000E+00 0.000E+00   0.404E-11 -.552E-12 -.346E-12
   -.119E-13 0.174E-12 -.251E-13   0.148E-13 -.219E-13 -.376E-13   0.000E+00 0.000E+00 0.000E+00   0.129E-11 0.764E-12 -.602E-12
   -.904E-14 0.721E-14 0.204E-12   -.115E-12 0.218E-14 0.161E-13   0.000E+00 0.000E+00 0.000E+00   -.114E-11 0.681E-12 -.221E-12
   0.172E-12 0.993E-14 0.167E-11   -.584E-13 0.722E-13 0.296E-14   0.000E+00 0.000E+00 0.000E+00   0.113E-11 0.688E-12 -.235E-12
   0.166E-12 0.128E-12 0.102E-11   -.128E-13 0.552E-13 0.190E-14   0.000E+00 0.000E+00 0.000E+00   -.405E-11 -.603E-12 -.100E-12
   -.623E-14 0.160E-12 0.200E-12   0.802E-13 -.595E-13 0.172E-13   0.000E+00 0.000E+00 0.000E+00   0.404E-11 -.614E-12 -.758E-13
   -.347E-13 -.606E-16 0.393E-15   -.207E-13 -.933E-14 0.585E-15   0.000E+00 0.000E+00 0.000E+00   -.842E-12 -.144E-12 -.875E-13
   -.183E-13 -.510E-12 0.361E-13   -.502E-14 -.795E-14 -.207E-13   0.000E+00 0.000E+00 0.000E+00   -.317E-12 0.189E-12 -.139E-12
   0.696E-11 0.170E-10 -.159E-10   -.130E-13 -.670E-13 -.146E-13   0.000E+00 0.000E+00 0.444E-15   0.494E-11 -.622E-11 0.218E-10

 POSITION                                       TOTAL-FORCE (eV/Angst)
      1.48959      1.48965      1.61696         0.001186      0.000312     -0.004453
      4.46919      1.48965      1.61696        -0.001186      0.000312     -0.004453
      1.48959      4.46913      1.61696         0.001186     -0.000312     -0.004453
      4.46919      4.46913      1.61696        -0.001186     -0.000312     -0.004453
      1.48959      1.48965      4.34182         0.001186      0.000312      0.004453
      4.46919      1.48965      4.34182        -0.001186      0.000312      0.004453
      1.48959      4.46913      4.34182         0.001186     -0.000312      0.004453
      4.46919      4.46913      4.34182        -0.001186     -0.000312      0.004453
      2.97939      0.00000     -0.00000         0.000000     -0.000000      0.000000
     -0.00000      2.97939     -0.00000         0.000000     -0.000000      0.000000
     -0.00000      0.00000      2.97939         0.000000     -0.000000      0.000000
      2.97939      0.00000      2.97939         0.000000     -0.000000      0.000000
      2.97939      2.97939      2.97939         0.000000     -0.000000      0.000000
     -0.00000      2.97939      2.97939         0.000000     -0.000000      0.000000
     -0.00000      0.00000     -0.00000         0.000000     -0.000000      0.000000
      2.97939      2.97939     -0.00000         0.000000     -0.000000      0.000000
    total drift:                                0.000000      0.000000      0.000000

  FREE ENERGIE OF THE ION-ELECTRON SYSTEM (eV)
  free  energy   TOTEN  =      -103.24924534 eV

  energy  without entropy=     -103.24665699  energy(sigma->0) =     -103.24795117

 d Force = 0.1434992E-04[-0.193E-04, 0.480E-04]  d Energy = 0.3526832E-04-0.209E-04
 d Force =-0.8149956E+00[-0.816E+00,-0.814E+00]  d Ewald  =-0.8149956E+00-0.493E-08

 Steepest descent step on ions:
 trial-energy change:   -0.000035  1 .order   -0.000014   -0.000048    0.000019
  (g-gl).g = 0.480E-04      g.g   = 0.480E-04  gl.gl    = 0.000E+00
 g(Force)  = 0.480E-04   g(Stress)= 0.000E+00 ortho     = 0.000E+00
 gamma     =   0.00000
 trial     =   1.00000
 opt step  =   0.71350  (harmonic =   0.71350) maximal distance =0.00038343
 next E    =  -103.249227   (d E  =  -0.00002)

 reached required accuracy - stopping structural energy minimisation

 total charge

[...]

 magnetization (x)

# of ion       s       p       d       tot
    1       -0.002  -0.002   0.005   0.001
    2       -0.001  -0.000  -0.003  -0.004
    3        0.001   0.000   0.003   0.004
    4        0.002   0.002  -0.005  -0.002
    5        0.002   0.002  -0.005  -0.002
    6        0.001   0.000   0.003   0.004
    7       -0.001  -0.000  -0.003  -0.004
    8       -0.002  -0.002   0.005   0.001
    9       -0.030  -0.015  -3.627  -3.671
   10        0.030   0.015   3.627   3.671
   11       -0.029  -0.035  -3.287  -3.351
   12       -0.029  -0.015  -3.467  -3.512
   13        0.029   0.035   3.288   3.352
   14        0.029   0.015   3.467   3.512
   15       -0.007   0.067  -0.002   0.058
   16        0.007  -0.067   0.002  -0.058
tot         -0.000  -0.000  -0.000  -0.000