 vasp.5.4.4.18Apr17-6-g9f103f2a35 (build May 21 2018 20:56:50) complex
 executed on             LinuxGNU date 2021.10.15  15:49:47

 INCAR:
 POTCAR:    PAW_PBE Ni 02Aug2007
 POTCAR:    PAW_PBE Mn 06Sep2000
 POTCAR:    PAW_PBE In 08Apr2002

 POTCAR:    PAW_PBE Ni 02Aug2007
   VRHFIN =Ni:

   TITEL  = PAW_PBE Ni 02Aug2007
   POMASS =   58.690; ZVAL   =   10.000    mass and valenz
   ENMAX  =  269.532; ENMIN  =  202.149 eV

 POTCAR:    PAW_PBE Mn 06Sep2000
   VRHFIN =Mn: d6 s1

   TITEL  = PAW_PBE Mn 06Sep2000
   POMASS =   54.938; ZVAL   =    7.000    mass and valenz
   ENMAX  =  269.864; ENMIN  =  202.398 eV

 POTCAR:    PAW_PBE In 08Apr2002
   VRHFIN =In: s2p1

   TITEL  = PAW_PBE In 08Apr2002
   POMASS =  114.820; ZVAL   =    3.000    mass and valenz
   ENMAX  =   95.934; ENMIN  =   71.951 eV

 Optimization of the real space projectors (new method)

 maximal supplied QI-value         = 16.25
 optimisation between [QCUT,QGAM] = [ 11.86, 23.89] = [ 39.41,159.82] Ry
 Optimized for a Real-space Cutoff    1.33 Angstroem

   l    n(q)    QCUT    max X(q) W(low)/X(q) W(high)/X(q)  e(spline)
   2      9    11.864    60.317    0.21E-03    0.51E-03    0.25E-06
   2      9    11.864    55.921    0.21E-03    0.51E-03    0.26E-06
   0      9    11.864    51.690    0.22E-03    0.30E-04    0.17E-06
   0      9    11.864    30.015    0.20E-03    0.28E-04    0.15E-06
   1      9    11.864    18.849    0.76E-04    0.33E-03    0.17E-06
   1      9    11.864    14.624    0.60E-04    0.28E-03    0.15E-06
 Optimization of the real space projectors (new method)

[...]

   l    n(q)    QCUT    max X(q) W(low)/X(q) W(high)/X(q)  e(spline)
   2      9    11.864   110.144    0.49E-03    0.50E-03    0.21E-06
   2      9    11.864   103.200    0.49E-03    0.51E-03    0.22E-06
   0     10    11.864    68.437    0.12E-03    0.41E-04    0.21E-06
   0     10    11.864    33.971    0.11E-03    0.36E-04    0.19E-06
   1      9    11.864    17.065    0.24E-03    0.26E-03    0.93E-07
   1      9    11.864    12.540    0.19E-03    0.20E-03    0.80E-07
 Optimization of the real space projectors (new method)

 maximal supplied QI-value         = 12.09
 optimisation between [QCUT,QGAM] = [ 11.97, 23.95] = [ 40.14,160.58] Ry
 Optimized for a Real-space Cutoff    1.63 Angstroem

   l    n(q)    QCUT    max X(q) W(low)/X(q) W(high)/X(q)  e(spline)
   0     12    11.973   106.980    0.33E-03    0.16E-03    0.25E-05
   0     12    11.973    81.086    0.37E-03    0.18E-03    0.28E-05
   1     11    11.973    53.097    0.22E-03    0.42E-03    0.40E-05
   1     11    11.973    32.621    0.20E-03    0.40E-03    0.37E-05
   2     11    11.973     8.820    0.30E-03    0.17E-03    0.41E-06
  PAW_PBE Ni 02Aug2007                  :
  PAW_PBE Mn 06Sep2000                  :
  PAW_PBE In 08Apr2002                  :

 POSCAR: Ni2MnIn
  positions in direct lattice
  velocities in cartesian coordinates
 exchange correlation table for  LEXCH =        8
   RHO(1)=    0.500       N(1)  =     2000
   RHO(2)=  100.500       N(2)  =     4000

 ion  position               nearest neighbor table
   1  0.250  0.250  0.250-   9 2.58  10 2.58  11 2.58  12 2.58  13 2.58  14 2.58  15 2.58  16 2.58
                             5 2.98   2 2.98   3 2.98   5 2.98   3 2.98   2 2.98
   2  0.750  0.250  0.250-   9 2.58  10 2.58  11 2.58  12 2.58  13 2.58  14 2.58  15 2.58  16 2.58
                             6 2.98   1 2.98   4 2.98   6 2.98   4 2.98   1 2.98
   3  0.250  0.750  0.250-   9 2.58  10 2.58  11 2.58  12 2.58  13 2.58  14 2.58  15 2.58  16 2.58
                             7 2.98   1 2.98   4 2.98   7 2.98   1 2.98   4 2.98
   4  0.750  0.750  0.250-   9 2.58  10 2.58  11 2.58  12 2.58  13 2.58  14 2.58  15 2.58  16 2.58
                             8 2.98   2 2.98   3 2.98   8 2.98   2 2.98   3 2.98
   5  0.250  0.250  0.750-   9 2.58  10 2.58  11 2.58  12 2.58  13 2.58  14 2.58  15 2.58  16 2.58
                             7 2.98   1 2.98   6 2.98   1 2.98   7 2.98   6 2.98
   6  0.750  0.250  0.750-   9 2.58  10 2.58  11 2.58  12 2.58  13 2.58  14 2.58  15 2.58  16 2.58
                             8 2.98   2 2.98   5 2.98   2 2.98   8 2.98   5 2.98
   7  0.250  0.750  0.750-   9 2.58  10 2.58  11 2.58  12 2.58  13 2.58  14 2.58  15 2.58  16 2.58
                             8 2.98   3 2.98   5 2.98   3 2.98   5 2.98   8 2.98
   8  0.750  0.750  0.750-   9 2.58  10 2.58  11 2.58  12 2.58  13 2.58  14 2.58  15 2.58  16 2.58
                             7 2.98   4 2.98   6 2.98   4 2.98   6 2.98   7 2.98
   9  0.500  0.000  0.000-   1 2.58   2 2.58   3 2.58   4 2.58   5 2.58   6 2.58   7 2.58   8 2.58
                            10 2.98  13 2.98  15 2.98  13 2.98  10 2.98  15 2.98
  10  0.500  0.500  0.000-   1 2.58   2 2.58   3 2.58   4 2.58   5 2.58   6 2.58   7 2.58   8 2.58
                             9 2.98  11 2.98  16 2.98  16 2.98   9 2.98  11 2.98
  11  0.000  0.500  0.000-   1 2.58   2 2.58   3 2.58   4 2.58   5 2.58   6 2.58   7 2.58   8 2.58
                            10 2.98  14 2.98  15 2.98  14 2.98  15 2.98  10 2.98
  12  0.000  0.000  0.500-   1 2.58   2 2.58   3 2.58   4 2.58   5 2.58   6 2.58   7 2.58   8 2.58
                            13 2.98  14 2.98  15 2.98  15 2.98  14 2.98  13 2.98
  13  0.500  0.000  0.500-   1 2.58   2 2.58   3 2.58   4 2.58   5 2.58   6 2.58   7 2.58   8 2.58
                             9 2.98  12 2.98  16 2.98   9 2.98  16 2.98  12 2.98
  14  0.000  0.500  0.500-   1 2.58   2 2.58   3 2.58   4 2.58   5 2.58   6 2.58   7 2.58   8 2.58
                            11 2.98  12 2.98  16 2.98  11 2.98  12 2.98  16 2.98
  15  0.000  0.000  0.000-   1 2.58   2 2.58   3 2.58   4 2.58   5 2.58   6 2.58   7 2.58   8 2.58
                             9 2.98  11 2.98  12 2.98  12 2.98  11 2.98   9 2.98
  16  0.500  0.500  0.500-   1 2.58   2 2.58   3 2.58   4 2.58   5 2.58   6 2.58   7 2.58   8 2.58
                            10 2.98  13 2.98  14 2.98  10 2.98  13 2.98  14 2.98

  LATTYP: Found a simple cubic cell.
 ALAT       =     5.9674546387

  Lattice vectors:

 A1 = (   5.9674546387,   0.0000000000,   0.0000000000)
 A2 = (   0.0000000000,   5.9674546387,   0.0000000000)
 A3 = (   0.0000000000,   0.0000000000,   5.9674546387)

Analysis of symmetry for initial positions (statically):
 Subroutine PRICEL returns following result:

  LATTYP: Found a body centered cubic cell.
 ALAT       =     5.9674546387

[...]

   2 primitive cells build up your supercell.

 Routine SETGRP: Setting up the symmetry group for a
 simple cubic supercell.

 Subroutine GETGRP returns: Found 48 space group operations
 (whereof 48 operations were pure point group operations)
 out of a pool of 48 trial point group operations.

The static configuration has the point symmetry O_h .

Analysis of symmetry for dynamics (positions and initial velocities):
 Subroutine PRICEL returns following result:

  LATTYP: Found a body centered cubic cell.
 ALAT       =     5.9674546387

  Lattice vectors:

 A1 = (   2.9837273194,   2.9837273194,   2.9837273194)
 A2 = (   2.9837273194,  -2.9837273194,  -2.9837273194)
 A3 = (  -2.9837273194,   2.9837273194,  -2.9837273194)

   2 primitive cells build up your supercell.

[...]

The dynamic configuration has the point symmetry O_h .

Analysis of structural, dynamic, and magnetic symmetry:
 Subroutine PRICEL returns:
 Original cell was already a primitive cell.

 Routine SETGRP: Setting up the symmetry group for a
 simple cubic supercell.

 Subroutine GETGRP returns: Found 16 space group operations
 (whereof 16 operations were pure point group operations)
 out of a pool of 48 trial point group operations.

The magnetic configuration has the point symmetry D_4h.

 Subroutine INISYM returns: Found 16 space group operations
 (whereof 16 operations are pure point group operations),
 and found     1 'primitive' translations

 KPOINTS: k-points

Automatic generation of k-mesh.
Space group operators:
 irot       det(A)        alpha          n_x          n_y          n_z        tau_x        tau_y        tau_z
    1     1.000000     0.000000     1.000000     0.000000     0.000000     0.000000     0.000000     0.000000
    2    -1.000000     0.000000     1.000000     0.000000     0.000000     0.000000     0.000000     0.000000
    3     1.000000    90.000000     0.000000     0.000000    -1.000000     0.000000     0.000000     0.000000
    4    -1.000000    90.000000     0.000000     0.000000    -1.000000     0.000000     0.000000     0.000000
    5     1.000000   180.000000     0.000000     0.000000     1.000000     0.000000     0.000000     0.000000
    6    -1.000000   180.000000     0.000000     0.000000     1.000000     0.000000     0.000000     0.000000
    7     1.000000    90.000000     0.000000     0.000000     1.000000     0.000000     0.000000     0.000000
    8    -1.000000    90.000000     0.000000     0.000000     1.000000     0.000000     0.000000     0.000000
    9     1.000000   180.000000     1.000000     0.000000     0.000000     0.000000     0.000000     0.000000
   10    -1.000000   180.000000     1.000000     0.000000     0.000000     0.000000     0.000000     0.000000
   11     1.000000   180.000000     0.707107     0.707107     0.000000     0.000000     0.000000     0.000000
   12    -1.000000   180.000000     0.707107     0.707107     0.000000     0.000000     0.000000     0.000000
   13     1.000000   180.000000     0.000000     1.000000     0.000000     0.000000     0.000000     0.000000
   14    -1.000000   180.000000     0.000000     1.000000     0.000000     0.000000     0.000000     0.000000
   15     1.000000   180.000000     0.707107    -0.707107     0.000000     0.000000     0.000000     0.000000
   16    -1.000000   180.000000     0.707107    -0.707107     0.000000     0.000000     0.000000     0.000000

 Subroutine IBZKPT returns following result:

 Found     40 irreducible k-points:

 Following reciprocal coordinates:
            Coordinates               Weight
  0.000000  0.000000  0.000000      1.000000
  0.142857  0.000000  0.000000      4.000000
  0.285714  0.000000  0.000000      4.000000
  0.428571  0.000000  0.000000      4.000000
  0.142857  0.142857  0.000000      4.000000
  0.285714  0.142857  0.000000      8.000000
  0.428571  0.142857  0.000000      8.000000
  0.285714  0.285714  0.000000      4.000000
  0.428571  0.285714  0.000000      8.000000
  0.428571  0.428571  0.000000      4.000000
  0.000000  0.000000  0.142857      2.000000
  0.142857  0.000000  0.142857      8.000000
  0.285714  0.000000  0.142857      8.000000
  0.428571  0.000000  0.142857      8.000000
  0.142857  0.142857  0.142857      8.000000
  0.285714  0.142857  0.142857     16.000000
  0.428571  0.142857  0.142857     16.000000
  0.285714  0.285714  0.142857      8.000000
  0.428571  0.285714  0.142857     16.000000
  0.428571  0.428571  0.142857      8.000000
  0.000000  0.000000  0.285714      2.000000
  0.142857  0.000000  0.285714      8.000000
  0.285714  0.000000  0.285714      8.000000
  0.428571  0.000000  0.285714      8.000000
  0.142857  0.142857  0.285714      8.000000
  0.285714  0.142857  0.285714     16.000000
  0.428571  0.142857  0.285714     16.000000
[...]
 Maximum number of real-space cells 3x 3x 3
 Maximum number of reciprocal cells 3x 3x 3

--------------------------------------- Iteration      1(   1)  ---------------------------------------

 eigenvalue-minimisations  : 13440
 total energy-change (2. order) : 0.1066516E+04  (-0.5413129E+04)
 number of electron     128.0000000 magnetization       0.8000000
 augmentation part      128.0000000 magnetization       0.8000000

 Free energy of the ion-electron system (eV)
  alpha Z        PSCENC =       529.51708554
  Ewald energy   TEWEN  =     -9392.49184515
  -Hartree energ DENC   =     -3029.60834591
  -exchange      EXHF   =         0.00000000
  -V(xc)+E(xc)   XCENC  =        77.96689623
  PAW double counting   =     10320.96726947   -10647.99417394
  entropy T*S    EENTRO =        -0.00093991
  eigenvalues    EBANDS =      1978.69842540
  atomic energy  EATOM  =     11229.46195210
  Solvation  Ediel_sol  =         0.00000000
  free energy    TOTEN  =      1066.51632384 eV

  energy without entropy =     1066.51726374  energy(sigma->0) =     1066.51679379

[...]

 eigenvalue-minimisations  : 13440
 total energy-change (2. order) :-0.1064575E+04  (-0.1032134E+04)
 number of electron     128.0000000 magnetization       0.8000000
 augmentation part      128.0000000 magnetization       0.8000000

[...]

 Broyden mixing:
  rms(total) = 0.34029E+01    rms(broyden)= 0.34029E+01
  rms(prec ) = 0.53338E+01
  weight for this iteration     100.00

[...]

 eigenvalues of (default mixing * dielectric matrix)
  average eigenvalue GAMMA=   0.1992
  0.1992

[...]

 eigenvalue-minimisations  : 14015
 total energy-change (2. order) : 0.5101990E-04  (-0.3135541E-04)
 number of electron     127.9999559 magnetization       0.0824259
 augmentation part       67.8332437 magnetization       0.0577214

 Broyden mixing:
  rms(total) = 0.63575E-02    rms(broyden)= 0.63518E-02
  rms(prec ) = 0.93151E-02
  weight for this iteration     100.00

 eigenvalues of (default mixing * dielectric matrix)
  average eigenvalue GAMMA=   0.9319
  2.6351  2.6351  1.2927  0.9727  0.9727  0.7429  0.7429  0.6042  0.5373  0.1445
  0.2226  0.3004  0.3116

[...]

--------------------------------------- Iteration      1(  19)  ---------------------------------------

 eigenvalue-minimisations  : 11598
 total energy-change (2. order) :-0.2211889E-05  (-0.6394727E-05)
 number of electron     127.9999559 magnetization       0.0824259
 augmentation part       67.8332437 magnetization       0.0577214

 Free energy of the ion-electron system (eV)
  alpha Z        PSCENC =       529.51708554
  Ewald energy   TEWEN  =     -9392.49184515
  -Hartree energ DENC   =     -2828.10036657
  -exchange      EXHF   =         0.00000000
  -V(xc)+E(xc)   XCENC  =        76.11610227
  PAW double counting   =     12944.45714777   -13288.23690980
  entropy T*S    EENTRO =        -0.00399944
  eigenvalues    EBANDS =       626.58813171
  atomic energy  EATOM  =     11229.46195210
  Solvation  Ediel_sol  =         0.00000000
  free energy    TOTEN  =      -102.69270156 eV

  energy without entropy =     -102.68870212  energy(sigma->0) =     -102.69070184

 average (electrostatic) potential at core
  the test charge radii are     0.9791  1.0210  1.4837
  (the norm of the test charge is              1.0000)
       1 -83.9308       2 -83.9308       3 -83.9308       4 -83.9308       5 -83.9308
       6 -83.9308       7 -83.9308       8 -83.9308       9 -42.3890      10 -42.3410
      11 -42.3890      12 -42.3409      13 -42.3932      14 -42.3932      15 -34.6416
      16 -34.6412

 E-fermi :   7.2526     XC(G=0): -12.2679     alpha+bet :-14.0787

 spin component 1

 k-point     1 :       0.0000    0.0000    0.0000
  band No.  band energies     occupation
      1      -1.9857      1.00000
      2       0.5046      1.00000
      3       2.2138      1.00000
      4       2.2217      1.00000
      5       2.2217      1.00000
      6       2.4411      1.00000
      7       3.0581      1.00000
      8       3.0755      1.00000
      9       3.2350      1.00000
     10       3.2558      1.00000
     11       3.2558      1.00000
     12       3.5126      1.00000
     13       3.7256      1.00000
     14       4.0406      1.00000
     15       4.1361      1.00000
     16       4.1891      1.00000
     17       4.1891      1.00000
     18       4.4195      1.00000
     19       4.4934      1.00000
     20       4.5028      1.00000
     21       4.5028      1.00000
     22       4.7630      1.00000
     23       4.7630      1.00000
     24       4.9345      1.00000
     25       5.0003      1.00000
     26       5.0117      1.00000
     27       5.0117      1.00000
     28       5.1724      1.00000
     29       5.2105      1.00000
     30       5.5167      1.00000
     31       5.5262      1.00000
     32       5.5262      1.00000
     33       5.5300      1.00000
     34       5.5646      1.00000
     35       5.5646      1.00000
     36       5.6424      1.00000
     37       5.6424      1.00000
     38       5.6428      1.00000
     39       5.6794      1.00000
     40       5.7346      1.00000
     41       5.7346      1.00000
     42       5.8627      1.00000
     43       5.8689      1.00000
     44       5.8689      1.00000
     45       5.9227      1.00000
     46       6.0308      1.00000
     47       6.1398      1.00000
     48       6.1423      1.00000
     49       6.1489      1.00000
     50       6.1489      1.00000
     51       6.2128      1.00000
     52       6.2171      1.00000
     53       6.3614      1.00000
     54       6.4446      1.00000
     55       6.4446      1.00000
     56       6.4662      1.00000
     57       6.4786      1.00000
     58       6.4883      1.00000
     59       6.4938      1.00000
     60       6.4938      1.00000
[...]
     70       7.5816      0.00000
     71       7.5816      0.00000
     72       8.1941      0.00000
     73       8.4584      0.00000
     74       8.5458      0.00000
     75       8.5458      0.00000
     76       8.8583      0.00000
     77       8.9126      0.00000
     78       9.1784      0.00000
     79       9.1784      0.00000
     80       9.2341      0.00000
     81       9.3017      0.00000
     82       9.6713      0.00000
     83      10.0915      0.00000
     84      11.0355      0.00000

[...]

 spin component 2

[...]

 k-point    40 :       0.4286    0.4286    0.4286
  band No.  band energies     occupation
      1      -0.1441      1.00000
      2      -0.0718      1.00000
      3       1.4592      1.00000
      4       1.6123      1.00000
      5       1.6933      1.00000
      6       2.1259      1.00000
      7       2.1869      1.00000
      8       2.5128      1.00000
      9       3.7852      1.00000
     10       3.8303      1.00000
     11       3.8317      1.00000
     12       4.0409      1.00000
     13       4.0526      1.00000
     14       4.1358      1.00000
     15       4.1795      1.00000
     16       4.2025      1.00000
     17       4.2416      1.00000
     18       4.2640      1.00000
     19       4.3423      1.00000
     20       4.3759      1.00000
     21       4.3878      1.00000
     22       4.4475      1.00000
     23       4.5203      1.00000
     24       4.6488      1.00000
     25       4.6581      1.00000
     26       4.6887      1.00000
     27       4.9842      1.00000
     28       4.9956      1.00000
     29       5.0338      1.00000
     30       5.1768      1.00000
     31       5.1937      1.00000
     32       5.2277      1.00000
     33       5.2503      1.00000
     34       5.2534      1.00000
     35       5.2638      1.00000
     36       5.2746      1.00000
     37       5.2998      1.00000
     38       5.3178      1.00000
     39       5.3333      1.00000
     40       5.3616      1.00000
     41       5.3755      1.00000
     42       5.4298      1.00000
     43       5.6359      1.00000
     44       5.6709      1.00000
     45       5.6749      1.00000
     46       5.7424      1.00000
     47       5.7464      1.00000
     48       5.7833      1.00000
     49       6.0998      1.00000
     50       6.1372      1.00000
     51       6.1816      1.00000
     52       6.1880      1.00000
     53       6.2262      1.00000
     54       6.2669      1.00000
     55       6.3807      1.00000
     56       6.4520      1.00000
     57       6.4815      1.00000
     58       6.5622      1.00000
     59       6.5676      1.00000
     60       6.5950      1.00000
[...]
     70       8.4330      0.00000
     71       8.4725      0.00000
     72       8.4775      0.00000
     73       8.5153      0.00000
     74       8.6188      0.00000
     75       8.6593      0.00000
     76       8.7686      0.00000
     77       8.9089      0.00000
     78       8.9117      0.00000
     79      10.7193      0.00000
     80      11.1777      0.00000
     81      11.4975      0.00000
     82      11.6290      0.00000
     83      11.7148      0.00000
     84      12.2872      0.00000

 soft charge-density along one line, spin component           1
         0         1         2         3         4         5         6         7         8         9
 total charge-density along one line

 soft charge-density along one line, spin component           2
         0         1         2         3         4         5         6         7         8         9
 total charge-density along one line

------------------------ aborting loop because EDIFF is reached ----------------------------------------

 total charge

# of ion       s       p       d       tot
    1        0.460   0.417   8.406   9.283
    2        0.465   0.418   8.378   9.261
    3        0.467   0.419   8.358   9.244
    4        0.466   0.418   8.399   9.283
    5        0.466   0.418   8.399   9.283
    6        0.467   0.419   8.358   9.244
    7        0.465   0.418   8.378   9.261
    8        0.460   0.417   8.406   9.283
    9        0.323   0.307   4.946   5.576
   10        0.327   0.310   4.941   5.578
   11        0.333   0.314   4.931   5.579
   12        0.327   0.310   4.940   5.577
   13        0.334   0.314   4.930   5.578
   14        0.323   0.307   4.948   5.577
   15        1.264   1.822   0.349   3.435
   16        1.264   1.822   0.349   3.435
tot          8.211   8.848  97.417 114.476

 magnetization (x)

[...]

  FORCE on cell =-STRESS in cart. coord.  units (eV):
  Direction    XX          YY          ZZ          XY          YZ          ZX
  Alpha Z   529.51709   529.51709   529.51709
  Ewald   -3130.84000 -3130.84000 -3130.84000    -0.00000    -0.00000    -0.00000
  Hartree   943.07585   943.07585   941.88541    -0.00000    -0.00000    -0.00000
  E(xc)    -671.77854  -671.77854  -671.10901    -0.00000    -0.00000     0.00000
  Local    -166.85213  -166.85213  -160.44509    -0.00000     0.00000     0.00000
  n-local  -149.51086  -146.63155  -149.50410    -0.10788    -0.26570    -0.06575
  augment  1580.75880  1580.75880  1578.53884     0.00000    -0.00000     0.00000
  Kinetic  1055.29271  1075.10591  1059.58847    -0.07126     1.66161     1.37825
  Fock        0.00000     0.00000     0.00000     0.00000     0.00000     0.00000
  Total       1.00917     1.00917    -2.36839     0.00000     0.00000     0.00000
  in kB       7.60863     7.60863   -17.85653     0.00000     0.00000     0.00000

 VOLUME and BASIS-vectors are now :
  energy-cutoff  :      550.00
  volume of cell :      212.50
      direct lattice vectors                 reciprocal lattice vectors
     5.967454639  0.000000000  0.000000000     0.167575635  0.000000000  0.000000000
     0.000000000  5.967454639  0.000000000     0.000000000  0.167575635  0.000000000
     0.000000000  0.000000000  5.967454639     0.000000000  0.000000000  0.167575635

  length of vectors
     5.967454639  5.967454639  5.967454639     0.167575635  0.167575635  0.167575635

 FORCES acting on ions
    electron-ion (+dipol)            ewald-force                    non-local-force                 convergence-correction
   0.738E-02 0.738E-02 0.479E-02   0.391E-13 0.000E+00 0.107E-13   -.647E-02 -.647E-02 0.172E-01   -.168E-02 -.168E-02 -.205E-01
   -.738E-02 0.738E-02 0.479E-02   0.284E-13 0.391E-13 0.142E-13   0.647E-02 -.647E-02 0.172E-01   0.168E-02 -.168E-02 -.205E-01
   0.738E-02 -.738E-02 0.479E-02   0.284E-13 0.355E-14 -.213E-13   -.647E-02 0.647E-02 0.172E-01   -.168E-02 0.168E-02 -.205E-01
   -.738E-02 -.738E-02 0.479E-02   0.711E-14 -.320E-13 -.142E-13   0.647E-02 0.647E-02 0.172E-01   0.168E-02 0.168E-02 -.205E-01
   0.738E-02 0.738E-02 -.479E-02   0.213E-13 -.320E-13 0.142E-13   -.647E-02 -.647E-02 -.172E-01   -.168E-02 -.168E-02 0.205E-01
   -.738E-02 0.738E-02 -.479E-02   0.426E-13 0.355E-14 -.711E-14   0.647E-02 -.647E-02 -.172E-01   0.168E-02 -.168E-02 0.205E-01
   0.738E-02 -.738E-02 -.479E-02   -.142E-13 0.391E-13 0.284E-13   -.647E-02 0.647E-02 -.172E-01   -.168E-02 0.168E-02 0.205E-01
   -.738E-02 -.738E-02 -.479E-02   0.533E-13 0.000E+00 0.107E-13   0.647E-02 0.647E-02 -.172E-01   0.168E-02 0.168E-02 0.205E-01
   0.199E-12 -.149E-13 -.939E-12   -.262E-13 0.105E-13 -.329E-13   0.000E+00 0.000E+00 0.000E+00   0.268E-15 0.425E-13 0.303E-13
   0.198E-12 0.172E-12 0.223E-12   -.290E-13 0.188E-13 -.220E-14   0.000E+00 0.000E+00 0.000E+00   0.109E-13 -.435E-13 0.283E-13
   -.249E-13 0.208E-12 -.372E-13   -.294E-13 0.170E-13 0.523E-13   0.000E+00 0.000E+00 0.000E+00   -.218E-14 -.541E-13 0.344E-13
   -.252E-13 -.536E-13 0.175E-12   -.319E-13 0.104E-13 0.290E-14   0.000E+00 0.000E+00 0.000E+00   0.277E-13 0.302E-13 -.186E-13
   0.195E-12 -.342E-13 0.858E-12   -.225E-13 0.129E-13 0.337E-13   0.000E+00 0.000E+00 0.000E+00   -.142E-13 0.298E-13 -.264E-13
   -.195E-13 0.208E-12 0.163E-12   -.325E-13 0.169E-13 -.657E-13   0.000E+00 0.000E+00 0.000E+00   0.270E-13 -.254E-13 -.139E-13
   -.306E-13 -.185E-13 -.436E-14   -.461E-13 -.843E-14 -.169E-14   0.000E+00 0.000E+00 0.000E+00   0.440E-14 0.157E-13 0.901E-14
   -.346E-13 -.255E-12 -.650E-12   -.445E-13 -.107E-13 0.172E-13   0.000E+00 0.000E+00 0.000E+00   -.823E-14 -.120E-13 -.818E-14
   0.621E-11 0.703E-11 0.815E-11   -.559E-13 0.887E-13 0.392E-13   0.260E-17 0.867E-18 -.278E-16   0.169E-12 0.186E-12 -.245E-12

 POSITION                                       TOTAL-FORCE (eV/Angst)
      1.49186      1.49186      1.49186        -0.000779     -0.000779      0.001474
      4.47559      1.49186      1.49186         0.000779     -0.000779      0.001474
      1.49186      4.47559      1.49186        -0.000779      0.000779      0.001474
      4.47559      4.47559      1.49186         0.000779      0.000779      0.001474
      1.49186      1.49186      4.47559        -0.000779     -0.000779     -0.001474
      4.47559      1.49186      4.47559         0.000779     -0.000779     -0.001474
      1.49186      4.47559      4.47559        -0.000779      0.000779     -0.001474
      4.47559      4.47559      4.47559         0.000779      0.000779     -0.001474
      2.98373      0.00000      0.00000        -0.000000     -0.000000      0.000000
      2.98373      2.98373      0.00000        -0.000000     -0.000000      0.000000
      0.00000      2.98373      0.00000        -0.000000     -0.000000      0.000000
      0.00000      0.00000      2.98373        -0.000000     -0.000000      0.000000
      2.98373      0.00000      2.98373        -0.000000     -0.000000      0.000000
      0.00000      2.98373      2.98373        -0.000000     -0.000000      0.000000
      0.00000      0.00000      0.00000        -0.000000     -0.000000      0.000000
      2.98373      2.98373      2.98373        -0.000000     -0.000000      0.000000
    total drift:                                0.000000      0.000000      0.000000

  FREE ENERGIE OF THE ION-ELECTRON SYSTEM (eV)
  free  energy   TOTEN  =      -102.69270156 eV

  energy  without entropy=     -102.68870212  energy(sigma->0) =     -102.69070184

 reached required accuracy - stopping structural energy minimisation

 total charge

[...]

 magnetization (x)

# of ion       s       p       d       tot
    1        0.001   0.000   0.006   0.007
    2        0.001   0.000   0.007   0.008
    3        0.000   0.000   0.007   0.008
    4        0.000   0.000   0.006   0.007
    5        0.000   0.000   0.006   0.007
    6        0.000   0.000   0.007   0.008
    7        0.001   0.000   0.007   0.008
    8        0.001   0.000   0.006   0.007
    9       -0.031  -0.023  -3.571  -3.625
   10       -0.026  -0.010  -3.583  -3.619
   11       -0.036  -0.019  -3.517  -3.573
   12        0.026   0.011   3.582   3.619
   13        0.037   0.019   3.521   3.577
   14        0.031   0.023   3.571   3.625
   15        0.006   0.019   0.002   0.027
   16       -0.006  -0.019  -0.002  -0.027
tot          0.005   0.003   0.056   0.063