 vasp.5.4.4.18Apr17-6-g9f103f2a35 (build May 21 2018 20:56:50) complex
 executed on             LinuxGNU date 2021.10.15  15:43:05

 INCAR:
 POTCAR:    PAW_PBE Ni 02Aug2007
 POTCAR:    PAW_PBE Mn 06Sep2000
 POTCAR:    PAW_PBE In 08Apr2002

 POTCAR:    PAW_PBE Ni 02Aug2007
   VRHFIN =Ni:

   TITEL  = PAW_PBE Ni 02Aug2007
   POMASS =   58.690; ZVAL   =   10.000    mass and valenz
   ENMAX  =  269.532; ENMIN  =  202.149 eV

 POTCAR:    PAW_PBE Mn 06Sep2000
   VRHFIN =Mn: d6 s1

   TITEL  = PAW_PBE Mn 06Sep2000
   POMASS =   54.938; ZVAL   =    7.000    mass and valenz
   ENMAX  =  269.864; ENMIN  =  202.398 eV

 POTCAR:    PAW_PBE In 08Apr2002
   VRHFIN =In: s2p1

   TITEL  = PAW_PBE In 08Apr2002
   POMASS =  114.820; ZVAL   =    3.000    mass and valenz
   ENMAX  =   95.934; ENMIN  =   71.951 eV

 Optimization of the real space projectors (new method)

 maximal supplied QI-value         = 16.25
 optimisation between [QCUT,QGAM] = [ 11.86, 23.89] = [ 39.41,159.82] Ry
 Optimized for a Real-space Cutoff    1.33 Angstroem

   l    n(q)    QCUT    max X(q) W(low)/X(q) W(high)/X(q)  e(spline)
   2      9    11.864    60.317    0.21E-03    0.51E-03    0.25E-06
   2      9    11.864    55.921    0.21E-03    0.51E-03    0.26E-06
   0      9    11.864    51.690    0.22E-03    0.30E-04    0.17E-06
   0      9    11.864    30.015    0.20E-03    0.28E-04    0.15E-06
   1      9    11.864    18.849    0.76E-04    0.33E-03    0.17E-06
   1      9    11.864    14.624    0.60E-04    0.28E-03    0.15E-06
 Optimization of the real space projectors (new method)

[...]

   l    n(q)    QCUT    max X(q) W(low)/X(q) W(high)/X(q)  e(spline)
   2      9    11.864   110.144    0.49E-03    0.50E-03    0.21E-06
   2      9    11.864   103.200    0.49E-03    0.51E-03    0.22E-06
   0     10    11.864    68.437    0.12E-03    0.41E-04    0.21E-06
   0     10    11.864    33.971    0.11E-03    0.36E-04    0.19E-06
   1      9    11.864    17.065    0.24E-03    0.26E-03    0.93E-07
   1      9    11.864    12.540    0.19E-03    0.20E-03    0.80E-07
 Optimization of the real space projectors (new method)

 maximal supplied QI-value         = 12.09
 optimisation between [QCUT,QGAM] = [ 11.97, 23.95] = [ 40.14,160.58] Ry
 Optimized for a Real-space Cutoff    1.63 Angstroem

   l    n(q)    QCUT    max X(q) W(low)/X(q) W(high)/X(q)  e(spline)
   0     12    11.973   106.980    0.33E-03    0.16E-03    0.25E-05
   0     12    11.973    81.086    0.37E-03    0.18E-03    0.28E-05
   1     11    11.973    53.097    0.22E-03    0.42E-03    0.40E-05
   1     11    11.973    32.621    0.20E-03    0.40E-03    0.37E-05
   2     11    11.973     8.820    0.30E-03    0.17E-03    0.41E-06
  PAW_PBE Ni 02Aug2007                  :
  PAW_PBE Mn 06Sep2000                  :
  PAW_PBE In 08Apr2002                  :

 POSCAR: Ni2MnIn
  positions in direct lattice
  velocities in cartesian coordinates
 exchange correlation table for  LEXCH =        8
   RHO(1)=    0.500       N(1)  =     2000
   RHO(2)=  100.500       N(2)  =     4000

 ion  position               nearest neighbor table
   1  0.250  0.250  0.267-  11 2.52  12 2.52  13 2.52  14 2.52   9 2.63  10 2.63  15 2.63  16 2.63
                             5 2.77   3 2.97   2 2.97   3 2.97   2 2.97
   2  0.750  0.250  0.267-  11 2.52  12 2.52  13 2.52  14 2.52   9 2.63  10 2.63  15 2.63  16 2.63
                             6 2.77   4 2.97   1 2.97   4 2.97   1 2.97
   3  0.250  0.750  0.267-  11 2.52  12 2.52  13 2.52  14 2.52   9 2.63  10 2.63  15 2.63  16 2.63
                             7 2.77   4 2.97   1 2.97   1 2.97   4 2.97
   4  0.750  0.750  0.267-  11 2.52  12 2.52  13 2.52  14 2.52   9 2.63  10 2.63  15 2.63  16 2.63
                             8 2.77   3 2.97   2 2.97   2 2.97   3 2.97
   5  0.250  0.250  0.733-  11 2.52  12 2.52  13 2.52  14 2.52   9 2.63  10 2.63  15 2.63  16 2.63
                             1 2.77   6 2.97   7 2.97   7 2.97   6 2.97
   6  0.750  0.250  0.733-  11 2.52  12 2.52  13 2.52  14 2.52   9 2.63  10 2.63  15 2.63  16 2.63
                             2 2.77   5 2.97   8 2.97   8 2.97   5 2.97
   7  0.250  0.750  0.733-  11 2.52  12 2.52  13 2.52  14 2.52   9 2.63  10 2.63  15 2.63  16 2.63
                             3 2.77   5 2.97   8 2.97   5 2.97   8 2.97
   8  0.750  0.750  0.733-  11 2.52  12 2.52  13 2.52  14 2.52   9 2.63  10 2.63  15 2.63  16 2.63
                             4 2.77   6 2.97   7 2.97   6 2.97   7 2.97
   9  0.500  0.000  0.000-   1 2.63   2 2.63   3 2.63   4 2.63   5 2.63   6 2.63   7 2.63   8 2.63
                            12 2.97  15 2.97  16 2.97  12 2.97  16 2.97  15 2.97
  10  0.000  0.500  0.000-   1 2.63   2 2.63   3 2.63   4 2.63   5 2.63   6 2.63   7 2.63   8 2.63
                            14 2.97  15 2.97  16 2.97  14 2.97  15 2.97  16 2.97
  11  0.000  0.000  0.500-   1 2.52   2 2.52   3 2.52   4 2.52   5 2.52   6 2.52   7 2.52   8 2.52
                            12 2.97  14 2.97  15 2.97  15 2.97  14 2.97  12 2.97
  12  0.500  0.000  0.500-   1 2.52   2 2.52   3 2.52   4 2.52   5 2.52   6 2.52   7 2.52   8 2.52
                             9 2.97  11 2.97  13 2.97   9 2.97  13 2.97  11 2.97
  13  0.500  0.500  0.500-   1 2.52   2 2.52   3 2.52   4 2.52   5 2.52   6 2.52   7 2.52   8 2.52
                            12 2.97  14 2.97  16 2.97  16 2.97  12 2.97  14 2.97
  14  0.000  0.500  0.500-   1 2.52   2 2.52   3 2.52   4 2.52   5 2.52   6 2.52   7 2.52   8 2.52
                            10 2.97  11 2.97  13 2.97  10 2.97  11 2.97  13 2.97
  15  0.000  0.000  0.000-   1 2.63   2 2.63   3 2.63   4 2.63   5 2.63   6 2.63   7 2.63   8 2.63
                             9 2.97  10 2.97  11 2.97  11 2.97  10 2.97   9 2.97
  16  0.500  0.500  0.000-   1 2.63   2 2.63   3 2.63   4 2.63   5 2.63   6 2.63   7 2.63   8 2.63
                             9 2.97  10 2.97  13 2.97  13 2.97   9 2.97  10 2.97

  LATTYP: Found a simple cubic cell.
 ALAT       =     5.9455395243

  Lattice vectors:

 A1 = (   5.9455395243,   0.0000000000,   0.0000000000)
 A2 = (   0.0000000000,   5.9455395243,   0.0000000000)
 A3 = (   0.0000000000,   0.0000000000,   5.9455395243)

Analysis of symmetry for initial positions (statically):
 Subroutine PRICEL returns following result:

  LATTYP: Found a simple tetragonal cell.
 ALAT       =     4.2041313154
 C/A-ratio  =     1.4142135624

[...]

   2 primitive cells build up your supercell.

 Routine SETGRP: Setting up the symmetry group for a
 simple cubic supercell.

 Subroutine GETGRP returns: Found 16 space group operations
 (whereof 16 operations were pure point group operations)
 out of a pool of 48 trial point group operations.

The static configuration has the point symmetry D_4h.

Analysis of symmetry for dynamics (positions and initial velocities):
 Subroutine PRICEL returns following result:

[...]

The dynamic configuration has the point symmetry D_4h.

Analysis of structural, dynamic, and magnetic symmetry:
 Subroutine PRICEL returns following result:

  LATTYP: Found a simple tetragonal cell.
 ALAT       =     4.2041313154
 C/A-ratio  =     1.4142135624

  Lattice vectors:

 A1 = (   2.9727697621,  -2.9727697621,   0.0000000000)
 A2 = (  -2.9727697621,  -2.9727697621,   0.0000000000)
 A3 = (   0.0000000000,   0.0000000000,  -5.9455395243)

   2 primitive cells build up your supercell.

 Routine SETGRP: Setting up the symmetry group for a
 simple cubic supercell.

 Subroutine GETGRP returns: Found 16 space group operations
 (whereof 16 operations were pure point group operations)
 out of a pool of 48 trial point group operations.

The magnetic configuration has the point symmetry D_4h.

 Subroutine INISYM returns: Found 16 space group operations
 (whereof 16 operations are pure point group operations),
 and found     2 'primitive' translations

 KPOINTS: k-points

Automatic generation of k-mesh.
Space group operators:
 irot       det(A)        alpha          n_x          n_y          n_z        tau_x        tau_y        tau_z
    1     1.000000     0.000001     1.000000     0.000000     0.000000     0.000000    -0.000000    -0.000000
    2    -1.000000     0.000001     1.000000     0.000000     0.000000     0.000000    -0.000000    -0.000000
    3     1.000000    90.000000     0.000000     0.000000    -1.000000     0.000000    -0.000000    -0.000000
    4    -1.000000    90.000000     0.000000     0.000000    -1.000000     0.000000    -0.000000    -0.000000
    5     1.000000   180.000000     0.000000     0.000000     1.000000     0.000000    -0.000000    -0.000000
    6    -1.000000   180.000000     0.000000     0.000000     1.000000     0.000000    -0.000000    -0.000000
    7     1.000000    90.000000     0.000000     0.000000     1.000000     0.000000    -0.000000    -0.000000
    8    -1.000000    90.000000     0.000000     0.000000     1.000000     0.000000    -0.000000    -0.000000
    9     1.000000   180.000000     1.000000     0.000000     0.000000     0.000000    -0.000000    -0.000000
   10    -1.000000   180.000000     1.000000     0.000000     0.000000     0.000000    -0.000000    -0.000000
   11     1.000000   180.000000     0.707107     0.707107     0.000000     0.000000    -0.000000    -0.000000
   12    -1.000000   180.000000     0.707107     0.707107     0.000000     0.000000    -0.000000    -0.000000
   13     1.000000   180.000000     0.000000     1.000000     0.000000     0.000000    -0.000000    -0.000000
   14    -1.000000   180.000000     0.000000     1.000000     0.000000     0.000000    -0.000000    -0.000000
   15     1.000000   180.000000     0.707107    -0.707107     0.000000     0.000000    -0.000000    -0.000000
   16    -1.000000   180.000000     0.707107    -0.707107     0.000000     0.000000    -0.000000    -0.000000

 Subroutine IBZKPT returns following result:

 Found     40 irreducible k-points:

 Following reciprocal coordinates:
            Coordinates               Weight
  0.000000  0.000000  0.000000      1.000000
  0.142857  0.000000  0.000000      4.000000
  0.285714  0.000000  0.000000      4.000000
  0.428571  0.000000  0.000000      4.000000
  0.142857  0.142857  0.000000      4.000000
  0.285714  0.142857  0.000000      8.000000
  0.428571  0.142857  0.000000      8.000000
  0.285714  0.285714  0.000000      4.000000
  0.428571  0.285714  0.000000      8.000000
  0.428571  0.428571  0.000000      4.000000
  0.000000  0.000000  0.142857      2.000000
  0.142857  0.000000  0.142857      8.000000
  0.285714  0.000000  0.142857      8.000000
  0.428571  0.000000  0.142857      8.000000
  0.142857  0.142857  0.142857      8.000000
  0.285714  0.142857  0.142857     16.000000
  0.428571  0.142857  0.142857     16.000000
  0.285714  0.285714  0.142857      8.000000
  0.428571  0.285714  0.142857     16.000000
  0.428571  0.428571  0.142857      8.000000
  0.000000  0.000000  0.285714      2.000000
  0.142857  0.000000  0.285714      8.000000
  0.285714  0.000000  0.285714      8.000000
  0.428571  0.000000  0.285714      8.000000
  0.142857  0.142857  0.285714      8.000000
  0.285714  0.142857  0.285714     16.000000
  0.428571  0.142857  0.285714     16.000000
  0.285714  0.285714  0.285714      8.000000
[...]
 Maximum number of real-space cells 3x 3x 3
 Maximum number of reciprocal cells 3x 3x 3

--------------------------------------- Iteration      1(   1)  ---------------------------------------

 eigenvalue-minimisations  : 13440
 total energy-change (2. order) : 0.1071145E+04  (-0.5426680E+04)
 number of electron     128.0000000 magnetization       8.8000000
 augmentation part      128.0000000 magnetization       8.8000000

 Free energy of the ion-electron system (eV)
  alpha Z        PSCENC =       535.39405617
  Ewald energy   TEWEN  =     -9321.86553532
  -Hartree energ DENC   =     -3117.78567318
  -exchange      EXHF   =         0.00000000
  -V(xc)+E(xc)   XCENC  =        78.28870862
  PAW double counting   =     10320.96726947   -10647.99417394
  entropy T*S    EENTRO =        -0.00187848
  eigenvalues    EBANDS =      1994.68003383
  atomic energy  EATOM  =     11229.46195210
  Solvation  Ediel_sol  =         0.00000000
  free energy    TOTEN  =      1071.14475926 eV

  energy without entropy =     1071.14663774  energy(sigma->0) =     1071.14569850

[...]

 eigenvalue-minimisations  : 13440
 total energy-change (2. order) :-0.1069547E+04  (-0.1036147E+04)
 number of electron     128.0000000 magnetization       8.8000000
 augmentation part      128.0000000 magnetization       8.8000000

[...]

 Broyden mixing:
  rms(total) = 0.34412E+01    rms(broyden)= 0.34412E+01
  rms(prec ) = 0.52875E+01
  weight for this iteration     100.00

[...]

 eigenvalues of (default mixing * dielectric matrix)
  average eigenvalue GAMMA=   0.2394
  0.2394

[...]

 eigenvalue-minimisations  : 14746
 total energy-change (2. order) :-0.2888960E-04  (-0.4139550E-04)
 number of electron     127.9999730 magnetization       8.0455415
 augmentation part       67.7359678 magnetization       6.1597610

[...]

 Broyden mixing:
  rms(total) = 0.34735E-02    rms(broyden)= 0.34732E-02
  rms(prec ) = 0.52154E-02
  weight for this iteration     100.00

 eigenvalues of (default mixing * dielectric matrix)
  average eigenvalue GAMMA=   0.9715
  2.5042  2.5042  1.2163  1.2163  0.8134  0.8134  0.6320  0.6320  0.5885  0.1907
  0.2537  0.2929

[...]

--------------------------------------- Iteration      1(  18)  ---------------------------------------

 eigenvalue-minimisations  :  8570
 total energy-change (2. order) : 0.2755894E-05  (-0.1973329E-05)
 number of electron     127.9999730 magnetization       8.0433656
 augmentation part       67.7336545 magnetization       6.1561152

 Free energy of the ion-electron system (eV)
  alpha Z        PSCENC =       535.39405617
  Ewald energy   TEWEN  =     -9321.86553532
  -Hartree energ DENC   =     -2913.34004627
  -exchange      EXHF   =         0.00000000
  -V(xc)+E(xc)   XCENC  =        75.42914132
  PAW double counting   =     12949.02895498   -13293.26968411
  entropy T*S    EENTRO =        -0.00391531
  eigenvalues    EBANDS =       635.79304598
  atomic energy  EATOM  =     11229.46195210
  Solvation  Ediel_sol  =         0.00000000
  free energy    TOTEN  =      -103.37203046 eV

  energy without entropy =     -103.36811515  energy(sigma->0) =     -103.37007281

 average (electrostatic) potential at core
  the test charge radii are     0.9791  1.0210  1.4837
  (the norm of the test charge is              1.0000)
       1 -83.8368       2 -83.8368       3 -83.8368       4 -83.8368       5 -83.8368
       6 -83.8368       7 -83.8368       8 -83.8368       9 -42.2986      10 -42.2986
      11 -42.4152      12 -42.4198      13 -42.4152      14 -42.4198      15 -34.4992
      16 -34.4992

 E-fermi :   7.3819     XC(G=0): -12.3330     alpha+bet :-14.2350

 spin component 1

 k-point     1 :       0.0000    0.0000    0.0000
  band No.  band energies     occupation
      1      -1.8973      1.00000
      2       0.8240      1.00000
      3       2.1175      1.00000
      4       2.3302      1.00000
      5       2.3417      1.00000
      6       2.3417      1.00000
      7       2.9661      1.00000
      8       3.2147      1.00000
      9       3.2574      1.00000
     10       3.2574      1.00000
     11       3.3883      1.00000
     12       3.5172      1.00000
     13       3.6331      1.00000
     14       3.8044      1.00000
     15       3.9186      1.00000
     16       4.3703      1.00000
     17       4.4054      1.00000
     18       4.4054      1.00000
     19       4.4441      1.00000
     20       4.4441      1.00000
     21       4.4529      1.00000
     22       4.4529      1.00000
     23       4.4629      1.00000
     24       4.5327      1.00000
     25       4.5327      1.00000
     26       4.5375      1.00000
     27       4.5564      1.00000
     28       4.9873      1.00000
     29       4.9873      1.00000
     30       5.0060      1.00000
     31       5.0971      1.00000
     32       5.1053      1.00000
     33       5.1605      1.00000
     34       5.2378      1.00000
     35       5.5940      1.00000
     36       5.5940      1.00000
     37       5.5954      1.00000
     38       5.5954      1.00000
     39       5.6282      1.00000
     40       5.9305      1.00000
     41       6.0546      1.00000
     42       6.0702      1.00000
     43       6.0702      1.00000
     44       6.0830      1.00000
     45       6.0830      1.00000
     46       6.1212      1.00000
     47       6.1307      1.00000
     48       6.1832      1.00000
     49       6.1944      1.00000
     50       6.2293      1.00000
     51       6.2491      1.00000
     52       6.2885      1.00000
     53       6.3663      1.00000
     54       6.4181      1.00000
     55       6.4357      1.00000
     56       6.4357      1.00000
     57       6.4604      1.00000
     58       6.4897      1.00000
     59       6.5255      1.00000
     60       6.5255      1.00000
[...]
     70       6.8956      1.00000
     71       7.1518      1.00000
     72       7.1518      1.00000
     73       7.4505      0.00000
     74       8.2361      0.00000
     75       8.5656      0.00000
     76       8.5656      0.00000
     77       8.5762      0.00000
     78       8.5762      0.00000
     79       8.9802      0.00000
     80       9.0750      0.00000
     81       9.1361      0.00000
     82       9.1854      0.00000
     83       9.2674      0.00000
     84      11.8104      0.00000

[...]

 spin component 2

[...]

 k-point    40 :       0.4286    0.4286    0.4286
  band No.  band energies     occupation
      1       0.0667      1.00000
      2       0.2556      1.00000
      3       1.5644      1.00000
      4       1.7256      1.00000
      5       2.0045      1.00000
      6       2.0487      1.00000
      7       2.3363      1.00000
      8       2.6631      1.00000
      9       4.0141      1.00000
     10       4.0311      1.00000
     11       4.0445      1.00000
     12       4.0923      1.00000
     13       4.0933      1.00000
     14       4.1423      1.00000
     15       4.2465      1.00000
     16       4.2561      1.00000
     17       4.3209      1.00000
     18       4.3215      1.00000
     19       4.6451      1.00000
     20       4.6503      1.00000
     21       4.6936      1.00000
     22       4.7155      1.00000
     23       4.8493      1.00000
     24       4.9039      1.00000
     25       4.9544      1.00000
     26       5.0036      1.00000
     27       5.1878      1.00000
     28       5.1931      1.00000
     29       5.2453      1.00000
     30       5.3064      1.00000
     31       5.4021      1.00000
     32       5.4030      1.00000
     33       5.4107      1.00000
     34       5.4457      1.00000
     35       5.4763      1.00000
     36       5.5112      1.00000
     37       5.5669      1.00000
     38       5.5856      1.00000
     39       5.6130      1.00000
     40       5.6246      1.00000
     41       5.6264      1.00000
     42       5.6643      1.00000
     43       5.8333      1.00000
     44       5.8603      1.00000
     45       5.9037      1.00000
     46       5.9290      1.00000
     47       6.0834      1.00000
     48       6.0845      1.00000
     49       6.3020      1.00000
     50       6.3101      1.00000
     51       6.3943      1.00000
     52       6.4042      1.00000
     53       6.6332      1.00000
     54       6.6453      1.00000
     55       6.7195      1.00000
     56       6.7486      1.00000
     57       6.9543      1.00000
     58       6.9569      1.00000
     59       7.6979      0.00000
     60       7.7245      0.00000
[...]
     70       8.8292      0.00000
     71       8.8556      0.00000
     72       8.8625      0.00000
     73       8.9158      0.00000
     74       8.9218      0.00000
     75       8.9353      0.00000
     76       8.9451      0.00000
     77       8.9584      0.00000
     78       9.0257      0.00000
     79      11.4944      0.00000
     80      11.8639      0.00000
     81      11.8785      0.00000
     82      11.9498      0.00000
     83      12.0746      0.00000
     84      12.2862      0.00000

 soft charge-density along one line, spin component           1
         0         1         2         3         4         5         6         7         8         9
 total charge-density along one line

 soft charge-density along one line, spin component           2
         0         1         2         3         4         5         6         7         8         9
 total charge-density along one line

------------------------ aborting loop because EDIFF is reached ----------------------------------------

 total charge

# of ion       s       p       d       tot
    1        0.473   0.429   8.377   9.278
    2        0.471   0.428   8.391   9.290
    3        0.471   0.428   8.391   9.290
    4        0.473   0.429   8.377   9.278
    5        0.473   0.429   8.377   9.278
    6        0.471   0.428   8.391   9.290
    7        0.471   0.428   8.391   9.290
    8        0.473   0.429   8.377   9.278
    9        0.316   0.292   4.957   5.564
   10        0.316   0.292   4.957   5.564
   11        0.342   0.349   4.953   5.643
   12        0.349   0.346   4.919   5.614
   13        0.342   0.349   4.953   5.643
   14        0.349   0.346   4.919   5.614
   15        1.248   1.768   0.309   3.325
   16        1.248   1.768   0.309   3.325
tot          8.281   8.936  97.347 114.565

 magnetization (x)

[...]

  FORCE on cell =-STRESS in cart. coord.  units (eV):
  Direction    XX          YY          ZZ          XY          YZ          ZX
  Alpha Z   535.39406   535.39406   535.39406
  Ewald   -2998.11045 -2998.11045 -3325.67316     0.00000    -0.00000    -0.00000
  Hartree  1071.37196  1071.37196   770.57997    -0.00000    -0.00000    -0.00000
  E(xc)    -670.83687  -670.83687  -671.05449     0.00000     0.00000    -0.00000
  Local    -432.90866  -432.90866   191.17255    -0.00000    -0.00000     0.00000
  n-local  -149.18451  -146.91370  -145.95835     0.00515    -0.55252     0.08756
  augment  1578.21252  1578.21252  1580.99428     0.00000     0.00000    -0.00000
  Kinetic  1056.68163  1070.05291  1065.85837     0.58301     0.97968     1.01764
  Fock        0.00000     0.00000     0.00000     0.00000     0.00000     0.00000
  Total      -1.55927    -1.55927     1.31322     0.00000     0.00000     0.00000
  in kB     -11.88658   -11.88658    10.01090     0.00000     0.00000     0.00000

 VOLUME and BASIS-vectors are now :
  energy-cutoff  :      550.00
  volume of cell :      210.17
      direct lattice vectors                 reciprocal lattice vectors
     5.945539524  0.000000000  0.000000000     0.168193315  0.000000000  0.000000000
     0.000000000  5.945539524  0.000000000     0.000000000  0.168193315  0.000000000
     0.000000000  0.000000000  5.945539524     0.000000000  0.000000000  0.168193315

  length of vectors
     5.945539524  5.945539524  5.945539524     0.168193315  0.168193315  0.168193315

 FORCES acting on ions
    electron-ion (+dipol)            ewald-force                    non-local-force                 convergence-correction
   0.698E-12 0.661E-12 0.168E+03   0.249E-13 0.711E-14 -.166E+03   -.249E-17 0.173E-17 -.244E+01   0.676E-14 0.321E-14 0.101E-01
   0.971E-12 -.141E-11 0.168E+03   0.391E-13 0.107E-13 -.166E+03   -.781E-17 0.867E-18 -.244E+01   0.632E-13 0.405E-13 0.101E-01
   0.277E-12 0.344E-11 0.168E+03   0.391E-13 0.107E-13 -.166E+03   -.781E-17 -.607E-17 -.244E+01   0.438E-13 0.580E-13 0.101E-01
   0.194E-11 -.326E-11 0.168E+03   0.107E-13 0.711E-14 -.166E+03   -.423E-17 -.347E-17 -.244E+01   0.343E-13 0.174E-13 0.101E-01
   0.652E-12 0.552E-12 -.168E+03   0.711E-13 0.711E-14 0.166E+03   0.000E+00 0.217E-17 0.244E+01   -.695E-14 -.297E-13 -.101E-01
   0.122E-11 -.111E-11 -.168E+03   0.711E-13 0.142E-13 0.166E+03   -.520E-17 0.694E-17 0.244E+01   0.189E-13 -.636E-13 -.101E-01
   0.432E-12 0.339E-11 -.168E+03   0.711E-13 0.284E-13 0.166E+03   -.347E-17 0.347E-17 0.244E+01   -.326E-13 0.784E-13 -.101E-01
   0.200E-11 -.291E-11 -.168E+03   0.711E-13 -.711E-14 0.166E+03   0.000E+00 0.217E-17 0.244E+01   0.668E-13 0.661E-13 -.101E-01
   0.211E-12 0.368E-13 -.648E-12   0.144E-13 0.186E-13 -.136E-14   0.000E+00 0.000E+00 0.000E+00   -.681E-14 0.914E-14 0.401E-13
   -.257E-13 0.187E-12 -.560E-13   0.112E-13 0.611E-14 -.135E-14   0.000E+00 0.000E+00 0.000E+00   -.103E-13 -.111E-13 0.632E-13
   -.317E-13 -.117E-13 0.211E-12   -.117E-12 -.179E-13 -.263E-13   0.000E+00 0.000E+00 0.000E+00   0.190E-13 0.547E-15 -.217E-13
   0.199E-12 -.396E-14 0.155E-11   -.111E-12 -.184E-13 -.284E-13   -.132E-22 0.000E+00 0.000E+00   -.179E-13 0.545E-15 -.472E-13
   0.191E-12 0.156E-12 0.896E-12   -.115E-12 -.246E-13 -.264E-13   0.000E+00 0.000E+00 0.000E+00   -.144E-13 0.126E-13 -.905E-13
   -.241E-13 0.174E-12 0.204E-12   -.114E-12 -.252E-13 -.285E-13   0.000E+00 0.662E-23 0.000E+00   0.111E-13 -.743E-14 -.488E-13
   -.251E-13 0.524E-15 -.275E-13   0.868E-14 0.193E-13 -.151E-13   -.132E-22 -.132E-22 0.000E+00   -.115E-14 -.147E-14 0.135E-13
   -.857E-14 -.501E-12 -.795E-14   0.986E-14 0.277E-13 0.619E-14   0.000E+00 0.000E+00 -.662E-23   0.939E-15 0.267E-15 0.224E-13
   0.867E-11 -.609E-12 -.186E-10   -.141E-13 0.638E-13 0.208E-13   -.310E-16 0.781E-17 -.888E-15   0.175E-12 0.174E-12 -.315E-12

 POSITION                                       TOTAL-FORCE (eV/Angst)
      1.48638      1.48638      1.58592        -0.000000     -0.000000     -0.007128
      4.45915      1.48638      1.58592         0.000000     -0.000000     -0.007128
      1.48638      4.45915      1.58592        -0.000000      0.000000     -0.007128
      4.45915      4.45915      1.58592         0.000000     -0.000000     -0.007128
      1.48638      1.48638      4.35962        -0.000000      0.000000      0.007128
      4.45915      1.48638      4.35962        -0.000000      0.000000      0.007128
      1.48638      4.45915      4.35962        -0.000000      0.000000      0.007128
      4.45915      4.45915      4.35962         0.000000      0.000000      0.007128
      2.97277      0.00000      0.00000        -0.000000      0.000000      0.000000
      0.00000      2.97277      0.00000        -0.000000      0.000000      0.000000
      0.00000      0.00000      2.97277        -0.000000      0.000000      0.000000
      2.97277      0.00000      2.97277         0.000000      0.000000      0.000000
      2.97277      2.97277      2.97277        -0.000000      0.000000      0.000000
      0.00000      2.97277      2.97277        -0.000000      0.000000      0.000000
      0.00000      0.00000      0.00000        -0.000000      0.000000      0.000000
      2.97277      2.97277      0.00000        -0.000000      0.000000      0.000000
    total drift:                                0.000000     -0.000000     -0.000000

  FREE ENERGIE OF THE ION-ELECTRON SYSTEM (eV)
  free  energy   TOTEN  =      -103.37203046 eV

  energy  without entropy=     -103.36811515  energy(sigma->0) =     -103.37007281

 reached required accuracy - stopping structural energy minimisation

 total charge

[...]

 magnetization (x)

# of ion       s       p       d       tot
    1       -0.010  -0.016   0.182   0.156
    2       -0.010  -0.010   0.185   0.165
    3       -0.010  -0.010   0.185   0.165
    4       -0.010  -0.016   0.182   0.156
    5       -0.010  -0.016   0.182   0.156
    6       -0.010  -0.010   0.185   0.165
    7       -0.010  -0.010   0.185   0.165
    8       -0.010  -0.016   0.182   0.156
    9        0.040   0.015   3.534   3.589
   10        0.040   0.015   3.534   3.589
   11        0.035   0.034   3.287   3.356
   12       -0.041  -0.049  -3.476  -3.565
   13        0.035   0.034   3.287   3.356
   14       -0.041  -0.049  -3.476  -3.565
   15       -0.022  -0.070  -0.000  -0.092
   16       -0.022  -0.070  -0.000  -0.092
tot         -0.055  -0.244   8.158   7.859