 vasp.5.4.4.18Apr17-6-g9f103f2a35 (build May 21 2018 20:56:50) complex
 executed on             LinuxGNU date 2021.10.15  15:49:33

 INCAR:
 POTCAR:    PAW_PBE Ni 02Aug2007
 POTCAR:    PAW_PBE Mn 06Sep2000
 POTCAR:    PAW_PBE In 08Apr2002

 POTCAR:    PAW_PBE Ni 02Aug2007
   VRHFIN =Ni:

   TITEL  = PAW_PBE Ni 02Aug2007
   POMASS =   58.690; ZVAL   =   10.000    mass and valenz
   ENMAX  =  269.532; ENMIN  =  202.149 eV

 POTCAR:    PAW_PBE Mn 06Sep2000
   VRHFIN =Mn: d6 s1

   TITEL  = PAW_PBE Mn 06Sep2000
   POMASS =   54.938; ZVAL   =    7.000    mass and valenz
   ENMAX  =  269.864; ENMIN  =  202.398 eV

 POTCAR:    PAW_PBE In 08Apr2002
   VRHFIN =In: s2p1

   TITEL  = PAW_PBE In 08Apr2002
   POMASS =  114.820; ZVAL   =    3.000    mass and valenz
   ENMAX  =   95.934; ENMIN  =   71.951 eV

 Optimization of the real space projectors (new method)

 maximal supplied QI-value         = 16.25
 optimisation between [QCUT,QGAM] = [ 11.86, 23.89] = [ 39.41,159.82] Ry
 Optimized for a Real-space Cutoff    1.33 Angstroem

   l    n(q)    QCUT    max X(q) W(low)/X(q) W(high)/X(q)  e(spline)
   2      9    11.864    60.317    0.21E-03    0.51E-03    0.25E-06
   2      9    11.864    55.921    0.21E-03    0.51E-03    0.26E-06
   0      9    11.864    51.690    0.22E-03    0.30E-04    0.17E-06
   0      9    11.864    30.015    0.20E-03    0.28E-04    0.15E-06
   1      9    11.864    18.849    0.76E-04    0.33E-03    0.17E-06
   1      9    11.864    14.624    0.60E-04    0.28E-03    0.15E-06
 Optimization of the real space projectors (new method)

[...]

   l    n(q)    QCUT    max X(q) W(low)/X(q) W(high)/X(q)  e(spline)
   2      9    11.864   110.144    0.49E-03    0.50E-03    0.21E-06
   2      9    11.864   103.200    0.49E-03    0.51E-03    0.22E-06
   0     10    11.864    68.437    0.12E-03    0.41E-04    0.21E-06
   0     10    11.864    33.971    0.11E-03    0.36E-04    0.19E-06
   1      9    11.864    17.065    0.24E-03    0.26E-03    0.93E-07
   1      9    11.864    12.540    0.19E-03    0.20E-03    0.80E-07
 Optimization of the real space projectors (new method)

 maximal supplied QI-value         = 12.09
 optimisation between [QCUT,QGAM] = [ 11.97, 23.95] = [ 40.14,160.58] Ry
 Optimized for a Real-space Cutoff    1.63 Angstroem

   l    n(q)    QCUT    max X(q) W(low)/X(q) W(high)/X(q)  e(spline)
   0     12    11.973   106.980    0.33E-03    0.16E-03    0.25E-05
   0     12    11.973    81.086    0.37E-03    0.18E-03    0.28E-05
   1     11    11.973    53.097    0.22E-03    0.42E-03    0.40E-05
   1     11    11.973    32.621    0.20E-03    0.40E-03    0.37E-05
   2     11    11.973     8.820    0.30E-03    0.17E-03    0.41E-06
  PAW_PBE Ni 02Aug2007                  :
  PAW_PBE Mn 06Sep2000                  :
  PAW_PBE In 08Apr2002                  :

 POSCAR: Ni2MnIn
  positions in direct lattice
  velocities in cartesian coordinates
 exchange correlation table for  LEXCH =        8
   RHO(1)=    0.500       N(1)  =     2000
   RHO(2)=  100.500       N(2)  =     4000

 ion  position               nearest neighbor table
   1  0.250  0.250  0.254-  12 2.57  13 2.57  14 2.57  16 2.58  15 2.59  11 2.60   9 2.60  10 2.60
                             5 2.94   3 2.98   2 2.98   3 2.99   2 2.99   5 3.03
   2  0.750  0.250  0.254-  12 2.57  13 2.57  14 2.57  16 2.58  15 2.59  11 2.60   9 2.60  10 2.60
                             6 2.94   4 2.98   1 2.98   4 2.99   1 2.99   6 3.03
   3  0.250  0.750  0.254-  12 2.57  13 2.57  14 2.57  16 2.58  15 2.59  11 2.60   9 2.60  10 2.60
                             7 2.94   4 2.98   1 2.98   4 2.99   1 2.99   7 3.03
   4  0.750  0.750  0.254-  12 2.57  13 2.57  14 2.57  16 2.58  15 2.59  11 2.60   9 2.60  10 2.60
                             8 2.94   3 2.98   2 2.98   2 2.99   3 2.99   8 3.03
   5  0.250  0.250  0.746-  12 2.57  13 2.57  14 2.57  16 2.58  15 2.59  11 2.60   9 2.60  10 2.60
                             1 2.94   6 2.98   7 2.98   7 2.99   6 2.99   1 3.03
   6  0.750  0.250  0.746-  12 2.57  13 2.57  14 2.57  16 2.58  15 2.59  11 2.60   9 2.60  10 2.60
                             2 2.94   5 2.98   8 2.98   8 2.99   5 2.99   2 3.03
   7  0.250  0.750  0.746-  12 2.57  13 2.57  14 2.57  16 2.58  15 2.59  11 2.60   9 2.60  10 2.60
                             3 2.94   5 2.98   8 2.98   8 2.99   5 2.99   3 3.03
   8  0.750  0.750  0.746-  12 2.57  13 2.57  14 2.57  16 2.58  15 2.59  11 2.60   9 2.60  10 2.60
                             4 2.94   6 2.98   7 2.98   6 2.99   7 2.99   4 3.03
   9  0.500  0.000  0.000-   1 2.60   2 2.60   3 2.60   4 2.60   5 2.60   6 2.60   7 2.60   8 2.60
                            10 2.98  13 2.98  15 2.98  13 2.98  10 2.98  15 2.98
  10  0.500  0.500  0.000-   1 2.60   2 2.60   3 2.60   4 2.60   5 2.60   6 2.60   7 2.60   8 2.60
                             9 2.98  11 2.98  16 2.98  16 2.98   9 2.98  11 2.98
  11  0.000  0.500  0.000-   1 2.60   2 2.60   3 2.60   4 2.60   5 2.60   6 2.60   7 2.60   8 2.60
                            10 2.98  14 2.98  15 2.98  14 2.98  15 2.98  10 2.98
  12  0.000  0.000  0.500-   1 2.57   2 2.57   3 2.57   4 2.57   5 2.57   6 2.57   7 2.57   8 2.57
                            13 2.98  14 2.98  15 2.98  15 2.98  14 2.98  13 2.98
  13  0.500  0.000  0.500-   1 2.57   2 2.57   3 2.57   4 2.57   5 2.57   6 2.57   7 2.57   8 2.57
                             9 2.98  12 2.98  16 2.98   9 2.98  16 2.98  12 2.98
  14  0.000  0.500  0.500-   1 2.57   2 2.57   3 2.57   4 2.57   5 2.57   6 2.57   7 2.57   8 2.57
                            11 2.98  12 2.98  16 2.98  11 2.98  12 2.98  16 2.98
  15  0.000  0.000  0.000-   1 2.59   2 2.59   3 2.59   4 2.59   5 2.59   6 2.59   7 2.59   8 2.59
                             9 2.98  11 2.98  12 2.98  12 2.98  11 2.98   9 2.98
  16  0.500  0.500  0.500-   1 2.58   2 2.58   3 2.58   4 2.58   5 2.58   6 2.58   7 2.58   8 2.58
                            10 2.98  13 2.98  14 2.98  10 2.98  13 2.98  14 2.98

  LATTYP: Found a simple cubic cell.
 ALAT       =     5.9688310295

  Lattice vectors:

 A1 = (   5.9688310295,   0.0000000000,   0.0000000000)
 A2 = (   0.0000000000,   5.9688310295,   0.0000000000)
 A3 = (   0.0000000000,   0.0000000000,   5.9688310295)

Analysis of symmetry for initial positions (statically):
 Subroutine PRICEL returns:
 Original cell was already a primitive cell.

 Routine SETGRP: Setting up the symmetry group for a
 simple cubic supercell.

 Subroutine GETGRP returns: Found 16 space group operations
 (whereof 16 operations were pure point group operations)
 out of a pool of 48 trial point group operations.

The static configuration has the point symmetry D_4h.

Analysis of symmetry for dynamics (positions and initial velocities):
 Subroutine PRICEL returns:
 Original cell was already a primitive cell.

[...]

The dynamic configuration has the point symmetry D_4h.

Analysis of structural, dynamic, and magnetic symmetry:
 Subroutine PRICEL returns:
 Original cell was already a primitive cell.

 Routine SETGRP: Setting up the symmetry group for a
 simple cubic supercell.

 Subroutine GETGRP returns: Found 16 space group operations
 (whereof 16 operations were pure point group operations)
 out of a pool of 48 trial point group operations.

The magnetic configuration has the point symmetry D_4h.

 Subroutine INISYM returns: Found 16 space group operations
 (whereof 16 operations are pure point group operations),
 and found     1 'primitive' translations

 KPOINTS: k-points

Automatic generation of k-mesh.
Space group operators:
 irot       det(A)        alpha          n_x          n_y          n_z        tau_x        tau_y        tau_z
    1     1.000000     0.000000     1.000000     0.000000     0.000000     0.000000     0.000000     0.000000
    2    -1.000000     0.000000     1.000000     0.000000     0.000000     0.000000     0.000000     0.000000
    3     1.000000    90.000000     0.000000     0.000000    -1.000000     0.000000     0.000000     0.000000
    4    -1.000000    90.000000     0.000000     0.000000    -1.000000     0.000000     0.000000     0.000000
    5     1.000000   180.000000     0.000000     0.000000     1.000000     0.000000     0.000000     0.000000
    6    -1.000000   180.000000     0.000000     0.000000     1.000000     0.000000     0.000000     0.000000
    7     1.000000    90.000000     0.000000     0.000000     1.000000     0.000000     0.000000     0.000000
    8    -1.000000    90.000000     0.000000     0.000000     1.000000     0.000000     0.000000     0.000000
    9     1.000000   180.000000     1.000000     0.000000     0.000000     0.000000     0.000000     0.000000
   10    -1.000000   180.000000     1.000000     0.000000     0.000000     0.000000     0.000000     0.000000
   11     1.000000   180.000000     0.707107     0.707107     0.000000     0.000000     0.000000     0.000000
   12    -1.000000   180.000000     0.707107     0.707107     0.000000     0.000000     0.000000     0.000000
   13     1.000000   180.000000     0.000000     1.000000     0.000000     0.000000     0.000000     0.000000
   14    -1.000000   180.000000     0.000000     1.000000     0.000000     0.000000     0.000000     0.000000
   15     1.000000   180.000000     0.707107    -0.707107     0.000000     0.000000     0.000000     0.000000
   16    -1.000000   180.000000     0.707107    -0.707107     0.000000     0.000000     0.000000     0.000000

 Subroutine IBZKPT returns following result:

 Found     40 irreducible k-points:

 Following reciprocal coordinates:
            Coordinates               Weight
  0.000000  0.000000  0.000000      1.000000
  0.142857  0.000000  0.000000      4.000000
  0.285714  0.000000  0.000000      4.000000
  0.428571  0.000000  0.000000      4.000000
  0.142857  0.142857  0.000000      4.000000
  0.285714  0.142857  0.000000      8.000000
  0.428571  0.142857  0.000000      8.000000
  0.285714  0.285714  0.000000      4.000000
  0.428571  0.285714  0.000000      8.000000
  0.428571  0.428571  0.000000      4.000000
  0.000000  0.000000  0.142857      2.000000
  0.142857  0.000000  0.142857      8.000000
  0.285714  0.000000  0.142857      8.000000
  0.428571  0.000000  0.142857      8.000000
  0.142857  0.142857  0.142857      8.000000
  0.285714  0.142857  0.142857     16.000000
  0.428571  0.142857  0.142857     16.000000
  0.285714  0.285714  0.142857      8.000000
  0.428571  0.285714  0.142857     16.000000
  0.428571  0.428571  0.142857      8.000000
  0.000000  0.000000  0.285714      2.000000
  0.142857  0.000000  0.285714      8.000000
  0.285714  0.000000  0.285714      8.000000
  0.428571  0.000000  0.285714      8.000000
  0.142857  0.142857  0.285714      8.000000
  0.285714  0.142857  0.285714     16.000000
  0.428571  0.142857  0.285714     16.000000
  0.285714  0.285714  0.285714      8.000000
  0.428571  0.285714  0.285714     16.000000
  0.428571  0.428571  0.285714      8.000000
  0.000000  0.000000  0.428571      2.000000
  0.142857  0.000000  0.428571      8.000000
  0.285714  0.000000  0.428571      8.000000
  0.428571  0.000000  0.428571      8.000000
  0.142857  0.142857  0.428571      8.000000
  0.285714  0.142857  0.428571     16.000000
[...]
 Maximum number of real-space cells 3x 3x 3
 Maximum number of reciprocal cells 3x 3x 3

--------------------------------------- Iteration      1(   1)  ---------------------------------------

 eigenvalue-minimisations  : 13440
 total energy-change (2. order) : 0.1065933E+04  (-0.5444465E+04)
 number of electron     128.0000000 magnetization      16.8000000
 augmentation part      128.0000000 magnetization      16.8000000

 Free energy of the ion-electron system (eV)
  alpha Z        PSCENC =       529.15085583
  Ewald energy   TEWEN  =     -9388.55216734
  -Hartree energ DENC   =     -3032.24738887
  -exchange      EXHF   =         0.00000000
  -V(xc)+E(xc)   XCENC  =        78.01477531
  PAW double counting   =     10320.96726947   -10647.99417394
  entropy T*S    EENTRO =        -0.00115124
  eigenvalues    EBANDS =      1977.13256303
  atomic energy  EATOM  =     11229.46195210
  Solvation  Ediel_sol  =         0.00000000
  free energy    TOTEN  =      1065.93253435 eV

  energy without entropy =     1065.93368559  energy(sigma->0) =     1065.93310997

[...]

 eigenvalue-minimisations  : 13440
 total energy-change (2. order) :-0.1064653E+04  (-0.1031047E+04)
 number of electron     128.0000000 magnetization      16.8000000
 augmentation part      128.0000000 magnetization      16.8000000

[...]

 Broyden mixing:
  rms(total) = 0.34404E+01    rms(broyden)= 0.34403E+01
  rms(prec ) = 0.54073E+01
  weight for this iteration     100.00

[...]

 eigenvalues of (default mixing * dielectric matrix)
  average eigenvalue GAMMA=   0.1751
  0.1751

[...]

 eigenvalue-minimisations  : 13210
 total energy-change (2. order) : 0.1332536E-04  (-0.1179218E-04)
 number of electron     127.9999842 magnetization      18.2660833
 augmentation part       67.7811756 magnetization      13.4470924

 Broyden mixing:
  rms(total) = 0.21744E-02    rms(broyden)= 0.21743E-02
  rms(prec ) = 0.24483E-02
  weight for this iteration     100.00

 eigenvalues of (default mixing * dielectric matrix)
  average eigenvalue GAMMA=   0.9615
  2.6012  2.6012  1.5400  0.9782  0.9782  0.7117  0.7117  0.6880  0.6049  0.1953
  0.2487  0.3271  0.3135

[...]

--------------------------------------- Iteration      1(  19)  ---------------------------------------

 eigenvalue-minimisations  :  8377
 total energy-change (2. order) :-0.2284554E-05  (-0.1571562E-05)
 number of electron     127.9999842 magnetization      18.2660833
 augmentation part       67.7811756 magnetization      13.4470924

 Free energy of the ion-electron system (eV)
  alpha Z        PSCENC =       529.15085583
  Ewald energy   TEWEN  =     -9388.55216734
  -Hartree energ DENC   =     -2825.92355857
  -exchange      EXHF   =         0.00000000
  -V(xc)+E(xc)   XCENC  =        76.18986723
  PAW double counting   =     12939.16234744   -13283.60585294
  entropy T*S    EENTRO =        -0.00277596
  eigenvalues    EBANDS =       621.23454111
  atomic energy  EATOM  =     11229.46195210
  Solvation  Ediel_sol  =         0.00000000
  free energy    TOTEN  =      -102.88479110 eV

  energy without entropy =     -102.88201514  energy(sigma->0) =     -102.88340312

 average (electrostatic) potential at core
  the test charge radii are     0.9791  1.0210  1.4837
  (the norm of the test charge is              1.0000)
       1 -83.9875       2 -83.9875       3 -83.9875       4 -83.9875       5 -83.9875
       6 -83.9875       7 -83.9875       8 -83.9875       9 -42.5025      10 -42.5250
      11 -42.5025      12 -42.2030      13 -42.3951      14 -42.3951      15 -34.6351
      16 -34.6001

 E-fermi :   7.3434     XC(G=0): -12.2680     alpha+bet :-14.0690

 spin component 1

 k-point     1 :       0.0000    0.0000    0.0000
  band No.  band energies     occupation
      1      -2.0482      1.00000
      2       0.4286      1.00000
      3       2.1349      1.00000
      4       2.1349      1.00000
      5       2.1631      1.00000
      6       2.2199      1.00000
      7       2.8213      1.00000
      8       2.8841      1.00000
      9       2.9232      1.00000
     10       2.9232      1.00000
     11       2.9499      1.00000
     12       3.0690      1.00000
     13       3.1762      1.00000
     14       3.6786      1.00000
     15       3.8707      1.00000
     16       3.9956      1.00000
     17       4.0923      1.00000
     18       4.0923      1.00000
     19       4.2259      1.00000
     20       4.2807      1.00000
     21       4.2807      1.00000
     22       4.2810      1.00000
     23       4.3020      1.00000
     24       4.3020      1.00000
     25       4.5310      1.00000
     26       4.6488      1.00000
     27       4.6488      1.00000
     28       4.7184      1.00000
     29       4.7184      1.00000
     30       4.7219      1.00000
     31       4.8456      1.00000
     32       4.9709      1.00000
     33       5.0164      1.00000
     34       5.2970      1.00000
     35       5.2970      1.00000
     36       5.3070      1.00000
     37       5.3342      1.00000
     38       5.3342      1.00000
     39       5.4073      1.00000
     40       5.4111      1.00000
     41       5.4111      1.00000
     42       5.4313      1.00000
     43       5.5511      1.00000
     44       5.6023      1.00000
     45       5.6023      1.00000
     46       5.7831      1.00000
     47       5.7933      1.00000
     48       5.7933      1.00000
     49       5.8413      1.00000
     50       5.8996      1.00000
     51       5.8999      1.00000
     52       5.9074      1.00000
     53       5.9584      1.00000
     54       5.9783      1.00000
     55       6.0287      1.00000
     56       6.0287      1.00000
     57       6.0635      1.00000
     58       6.1182      1.00000
     59       6.1292      1.00000
     60       6.1292      1.00000
[...]
     70       6.6315      1.00000
     71       6.6318      1.00000
     72       6.6880      1.00000
     73       6.8797      1.00000
     74       6.8797      1.00000
     75       6.9525      1.00000
     76       7.0239      1.00000
     77       7.1433      1.00000
     78       7.1433      1.00000
     79       8.2959      0.00000
     80       8.2959      0.00000
     81       8.3793      0.00000
     82       8.8512      0.00000
     83       9.1188      0.00000
     84      10.6511      0.00000

[...]

 spin component 2

[...]

 k-point    40 :       0.4286    0.4286    0.4286
  band No.  band energies     occupation
      1      -0.1311      1.00000
      2      -0.0437      1.00000
      3       1.5995      1.00000
      4       1.7226      1.00000
      5       1.8076      1.00000
      6       2.2827      1.00000
      7       2.3385      1.00000
      8       2.6351      1.00000
      9       3.8851      1.00000
     10       4.1269      1.00000
     11       4.2107      1.00000
     12       4.3069      1.00000
     13       4.3158      1.00000
     14       4.6505      1.00000
     15       4.6919      1.00000
     16       4.7194      1.00000
     17       4.7336      1.00000
     18       4.7810      1.00000
     19       4.9882      1.00000
     20       5.0462      1.00000
     21       5.0646      1.00000
     22       5.0850      1.00000
     23       5.1758      1.00000
     24       5.2478      1.00000
     25       5.3111      1.00000
     26       5.3272      1.00000
     27       5.3379      1.00000
     28       5.3749      1.00000
     29       5.3822      1.00000
     30       5.3972      1.00000
     31       5.4182      1.00000
     32       5.4193      1.00000
     33       5.4256      1.00000
     34       5.4361      1.00000
     35       5.4453      1.00000
     36       5.4596      1.00000
     37       5.5027      1.00000
     38       5.5222      1.00000
     39       5.5285      1.00000
     40       5.5335      1.00000
     41       5.5351      1.00000
     42       5.5928      1.00000
     43       5.8053      1.00000
     44       5.8437      1.00000
     45       5.8493      1.00000
     46       5.9091      1.00000
     47       5.9195      1.00000
     48       5.9552      1.00000
     49       6.2264      1.00000
     50       6.2761      1.00000
     51       6.6121      1.00000
     52       6.6171      1.00000
     53       6.6484      1.00000
     54       8.0099      0.00000
     55       8.0640      0.00000
     56       8.0645      0.00000
     57       8.1262      0.00000
     58       8.1427      0.00000
     59       8.1849      0.00000
     60       8.2257      0.00000
[...]
     70       8.6313      0.00000
     71       8.7290      0.00000
     72       8.8242      0.00000
     73       8.8722      0.00000
     74       8.9345      0.00000
     75       8.9850      0.00000
     76       9.0199      0.00000
     77       9.0880      0.00000
     78       9.1327      0.00000
     79      11.1627      0.00000
     80      11.5593      0.00000
     81      11.6701      0.00000
     82      11.9120      0.00000
     83      12.1325      0.00000
     84      12.5395      0.00000

 soft charge-density along one line, spin component           1
         0         1         2         3         4         5         6         7         8         9
 total charge-density along one line

 soft charge-density along one line, spin component           2
         0         1         2         3         4         5         6         7         8         9
 total charge-density along one line

------------------------ aborting loop because EDIFF is reached ----------------------------------------

 total charge

# of ion       s       p       d       tot
    1        0.466   0.424   8.382   9.272
    2        0.464   0.420   8.375   9.259
    3        0.466   0.420   8.368   9.254
    4        0.464   0.424   8.370   9.258
    5        0.464   0.424   8.370   9.258
    6        0.466   0.420   8.368   9.254
    7        0.464   0.420   8.375   9.259
    8        0.466   0.424   8.382   9.272
    9        0.320   0.309   4.903   5.532
   10        0.324   0.315   4.914   5.553
   11        0.330   0.317   4.936   5.583
   12        0.335   0.310   4.959   5.604
   13        0.335   0.324   4.917   5.576
   14        0.325   0.313   4.958   5.596
   15        1.261   1.798   0.348   3.407
   16        1.273   1.838   0.357   3.468
tot          8.224   8.900  97.282 114.406

 magnetization (x)

[...]

  FORCE on cell =-STRESS in cart. coord.  units (eV):
  Direction    XX          YY          ZZ          XY          YZ          ZX
  Alpha Z   529.15086   529.15086   529.15086
  Ewald   -3128.42867 -3128.42867 -3131.72298    -0.00000    -0.00000     0.00000
  Hartree   943.03102   943.03102   939.85453    -0.00000    -0.00000    -0.00000
  E(xc)    -671.42823  -671.42823  -671.72736     0.00000     0.00000     0.00000
  Local    -167.74810  -167.74810  -163.06121    -0.00000    -0.00000     0.00000
  n-local  -147.59587  -143.68088  -147.00394     0.00932    -0.43472    -0.05808
  augment  1579.82055  1579.82055  1581.58518    -0.00000     0.00000     0.00000
  Kinetic  1052.05863  1068.55599  1064.01553     0.96816     0.55728     1.18803
  Fock        0.00000     0.00000     0.00000     0.00000     0.00000     0.00000
  Total      -0.93365    -0.93365     1.09062     0.00000    -0.00000    -0.00000
  in kB      -7.03440    -7.03440     8.21703     0.00000    -0.00000    -0.00000

 VOLUME and BASIS-vectors are now :
  energy-cutoff  :      550.00
  volume of cell :      212.65
      direct lattice vectors                 reciprocal lattice vectors
     5.968831030  0.000000000  0.000000000     0.167536993  0.000000000  0.000000000
     0.000000000  5.968831030  0.000000000     0.000000000  0.167536993  0.000000000
     0.000000000  0.000000000  5.968831030     0.000000000  0.000000000  0.167536993

  length of vectors
     5.968831030  5.968831030  5.968831030     0.167536993  0.167536993  0.167536993

 FORCES acting on ions
    electron-ion (+dipol)            ewald-force                    non-local-force                 convergence-correction
   -.383E+01 -.383E+01 0.195E+02   0.371E+01 0.371E+01 -.195E+02   0.114E+00 0.114E+00 0.161E-01   0.777E-02 0.777E-02 -.562E-02
   0.383E+01 -.383E+01 0.195E+02   -.371E+01 0.371E+01 -.195E+02   -.114E+00 0.114E+00 0.161E-01   -.777E-02 0.777E-02 -.562E-02
   -.383E+01 0.383E+01 0.195E+02   0.371E+01 -.371E+01 -.195E+02   0.114E+00 -.114E+00 0.161E-01   0.777E-02 -.777E-02 -.562E-02
   0.383E+01 0.383E+01 0.195E+02   -.371E+01 -.371E+01 -.195E+02   -.114E+00 -.114E+00 0.161E-01   -.777E-02 -.777E-02 -.562E-02
   -.383E+01 -.383E+01 -.195E+02   0.371E+01 0.371E+01 0.195E+02   0.114E+00 0.114E+00 -.161E-01   0.777E-02 0.777E-02 0.562E-02
   0.383E+01 -.383E+01 -.195E+02   -.371E+01 0.371E+01 0.195E+02   -.114E+00 0.114E+00 -.161E-01   -.777E-02 0.777E-02 0.562E-02
   -.383E+01 0.383E+01 -.195E+02   0.371E+01 -.371E+01 0.195E+02   0.114E+00 -.114E+00 -.161E-01   0.777E-02 -.777E-02 0.562E-02
   0.383E+01 0.383E+01 -.195E+02   -.371E+01 -.371E+01 0.195E+02   -.114E+00 -.114E+00 -.161E-01   -.777E-02 -.777E-02 0.562E-02
   0.219E-12 -.358E-14 -.908E-12   -.398E-13 -.735E-13 0.240E-13   0.000E+00 0.000E+00 0.000E+00   -.341E-14 0.788E-14 0.499E-13
   0.222E-12 0.168E-12 0.256E-12   -.130E-13 -.695E-13 -.167E-13   0.000E+00 0.000E+00 0.000E+00   0.148E-13 -.279E-13 0.262E-13
   -.435E-13 0.195E-12 -.548E-13   -.418E-13 0.138E-14 0.980E-14   0.000E+00 0.000E+00 0.000E+00   0.241E-14 -.239E-13 0.542E-14
   -.449E-13 -.416E-13 0.179E-12   0.497E-13 0.129E-13 -.403E-13   0.000E+00 0.000E+00 0.000E+00   0.358E-13 0.302E-13 -.307E-13
   0.215E-12 -.211E-13 0.961E-12   0.872E-13 0.696E-13 -.380E-13   0.000E+00 0.000E+00 0.000E+00   -.117E-13 0.218E-13 -.402E-13
   -.425E-13 0.191E-12 0.184E-12   0.519E-13 0.598E-13 0.469E-14   0.000E+00 0.000E+00 0.000E+00   0.277E-13 -.214E-13 -.199E-13
   -.306E-13 -.219E-13 -.152E-13   -.202E-14 -.151E-14 -.223E-13   0.000E+00 0.000E+00 0.000E+00   0.414E-14 0.720E-14 0.106E-13
   -.208E-13 -.271E-12 -.596E-12   0.317E-13 0.211E-13 -.104E-13   0.000E+00 0.000E+00 0.000E+00   -.908E-14 -.100E-13 -.726E-14
   0.305E-11 0.123E-10 -.361E-10   0.312E-14 -.113E-14 -.431E-13   0.278E-16 -.139E-16 0.000E+00   0.423E-12 0.250E-12 -.238E-12

 POSITION                                       TOTAL-FORCE (eV/Angst)
      1.48924      1.48924      1.51380         0.000426      0.000426     -0.007106
      4.47959      1.48924      1.51380        -0.000426      0.000426     -0.007106
      1.48924      4.47959      1.51380         0.000426     -0.000426     -0.007106
      4.47959      4.47959      1.51380        -0.000426     -0.000426     -0.007106
      1.48924      1.48924      4.45503         0.000426      0.000426      0.007106
      4.47959      1.48924      4.45503        -0.000426      0.000426      0.007106
      1.48924      4.47959      4.45503         0.000426     -0.000426      0.007106
      4.47959      4.47959      4.45503        -0.000426     -0.000426      0.007106
      2.98442      0.00000      0.00000        -0.000000      0.000000     -0.000000
      2.98442      2.98442      0.00000        -0.000000      0.000000     -0.000000
      0.00000      2.98442      0.00000        -0.000000      0.000000     -0.000000
      0.00000      0.00000      2.98442        -0.000000      0.000000     -0.000000
      2.98442      0.00000      2.98442        -0.000000      0.000000     -0.000000
      0.00000      2.98442      2.98442        -0.000000      0.000000     -0.000000
      0.00000      0.00000      0.00000        -0.000000      0.000000     -0.000000
      2.98442      2.98442      2.98442        -0.000000      0.000000     -0.000000
    total drift:                                0.000000      0.000000     -0.000000

  FREE ENERGIE OF THE ION-ELECTRON SYSTEM (eV)
  free  energy   TOTEN  =      -102.88479110 eV

  energy  without entropy=     -102.88201514  energy(sigma->0) =     -102.88340312

 reached required accuracy - stopping structural energy minimisation

 total charge

[...]

 magnetization (x)

# of ion       s       p       d       tot
    1       -0.011  -0.004   0.458   0.442
    2       -0.011  -0.009   0.440   0.420
    3       -0.010  -0.009   0.445   0.426
    4       -0.014  -0.003   0.460   0.443
    5       -0.014  -0.003   0.460   0.443
    6       -0.010  -0.009   0.445   0.426
    7       -0.011  -0.009   0.440   0.420
    8       -0.011  -0.004   0.458   0.442
    9        0.032   0.029   3.554   3.615
   10       -0.039  -0.045  -3.532  -3.617
   11        0.030   0.040   3.545   3.615
   12        0.033  -0.001   3.577   3.609
   13        0.023   0.023   3.529   3.575
   14        0.021   0.026   3.568   3.615
   15       -0.005  -0.091  -0.011  -0.107
   16        0.007  -0.045  -0.009  -0.048
tot          0.007  -0.114  17.827  17.719