 vasp.5.4.4.18Apr17-6-g9f103f2a35 (build May 21 2018 20:56:50) complex
 executed on             LinuxGNU date 2021.10.15  15:48:33

 INCAR:
 POTCAR:    PAW_PBE Ni 02Aug2007
 POTCAR:    PAW_PBE Mn 06Sep2000
 POTCAR:    PAW_PBE In 08Apr2002

 POTCAR:    PAW_PBE Ni 02Aug2007
   VRHFIN =Ni:

   TITEL  = PAW_PBE Ni 02Aug2007
   POMASS =   58.690; ZVAL   =   10.000    mass and valenz
   ENMAX  =  269.532; ENMIN  =  202.149 eV

 POTCAR:    PAW_PBE Mn 06Sep2000
   VRHFIN =Mn: d6 s1

   TITEL  = PAW_PBE Mn 06Sep2000
   POMASS =   54.938; ZVAL   =    7.000    mass and valenz
   ENMAX  =  269.864; ENMIN  =  202.398 eV

 POTCAR:    PAW_PBE In 08Apr2002
   VRHFIN =In: s2p1

   TITEL  = PAW_PBE In 08Apr2002
   POMASS =  114.820; ZVAL   =    3.000    mass and valenz
   ENMAX  =   95.934; ENMIN  =   71.951 eV

 Optimization of the real space projectors (new method)

 maximal supplied QI-value         = 16.25
 optimisation between [QCUT,QGAM] = [ 11.86, 23.89] = [ 39.41,159.82] Ry
 Optimized for a Real-space Cutoff    1.33 Angstroem

   l    n(q)    QCUT    max X(q) W(low)/X(q) W(high)/X(q)  e(spline)
   2      9    11.864    60.317    0.21E-03    0.51E-03    0.25E-06
   2      9    11.864    55.921    0.21E-03    0.51E-03    0.26E-06
   0      9    11.864    51.690    0.22E-03    0.30E-04    0.17E-06
   0      9    11.864    30.015    0.20E-03    0.28E-04    0.15E-06
   1      9    11.864    18.849    0.76E-04    0.33E-03    0.17E-06
   1      9    11.864    14.624    0.60E-04    0.28E-03    0.15E-06
 Optimization of the real space projectors (new method)

[...]

   l    n(q)    QCUT    max X(q) W(low)/X(q) W(high)/X(q)  e(spline)
   2      9    11.864   110.144    0.49E-03    0.50E-03    0.21E-06
   2      9    11.864   103.200    0.49E-03    0.51E-03    0.22E-06
   0     10    11.864    68.437    0.12E-03    0.41E-04    0.21E-06
   0     10    11.864    33.971    0.11E-03    0.36E-04    0.19E-06
   1      9    11.864    17.065    0.24E-03    0.26E-03    0.93E-07
   1      9    11.864    12.540    0.19E-03    0.20E-03    0.80E-07
 Optimization of the real space projectors (new method)

 maximal supplied QI-value         = 12.09
 optimisation between [QCUT,QGAM] = [ 11.97, 23.95] = [ 40.14,160.58] Ry
 Optimized for a Real-space Cutoff    1.63 Angstroem

   l    n(q)    QCUT    max X(q) W(low)/X(q) W(high)/X(q)  e(spline)
   0     12    11.973   106.980    0.33E-03    0.16E-03    0.25E-05
   0     12    11.973    81.086    0.37E-03    0.18E-03    0.28E-05
   1     11    11.973    53.097    0.22E-03    0.42E-03    0.40E-05
   1     11    11.973    32.621    0.20E-03    0.40E-03    0.37E-05
   2     11    11.973     8.820    0.30E-03    0.17E-03    0.41E-06
  PAW_PBE Ni 02Aug2007                  :
  PAW_PBE Mn 06Sep2000                  :
  PAW_PBE In 08Apr2002                  :

 POSCAR: Ni2MnIn
  positions in direct lattice
  velocities in cartesian coordinates
 exchange correlation table for  LEXCH =        8
   RHO(1)=    0.500       N(1)  =     2000
   RHO(2)=  100.500       N(2)  =     4000

 ion  position               nearest neighbor table
   1  0.250  0.250  0.267-  12 2.44  11 2.44  13 2.44  14 2.44   9 2.55  15 2.55  16 2.55  10 2.55
                             5 2.69   3 2.87   2 2.87   3 2.89   2 2.89   5 3.07
   2  0.750  0.250  0.267-  12 2.44  11 2.44  13 2.44  14 2.44   9 2.55  15 2.55  16 2.55  10 2.55
                             6 2.69   4 2.87   1 2.87   4 2.89   1 2.89   6 3.07
   3  0.250  0.750  0.267-  12 2.44  11 2.44  13 2.44  14 2.44   9 2.55  15 2.55  16 2.55  10 2.55
                             7 2.69   4 2.87   1 2.87   1 2.89   4 2.89   7 3.07
   4  0.750  0.750  0.267-  12 2.44  11 2.44  13 2.44  14 2.44   9 2.55  15 2.55  16 2.55  10 2.55
                             8 2.69   3 2.87   2 2.87   3 2.89   2 2.89   8 3.07
   5  0.250  0.250  0.733-  12 2.44  11 2.44  13 2.44  14 2.44   9 2.55  15 2.55  16 2.55  10 2.55
                             1 2.69   6 2.87   7 2.87   7 2.89   6 2.89   1 3.07
   6  0.750  0.250  0.733-  12 2.44  11 2.44  13 2.44  14 2.44   9 2.55  15 2.55  16 2.55  10 2.55
                             2 2.69   5 2.87   8 2.87   8 2.89   5 2.89   2 3.07
   7  0.250  0.750  0.733-  12 2.44  11 2.44  13 2.44  14 2.44   9 2.55  15 2.55  16 2.55  10 2.55
                             3 2.69   5 2.87   8 2.87   5 2.89   8 2.89   3 3.07
   8  0.750  0.750  0.733-  12 2.44  11 2.44  13 2.44  14 2.44   9 2.55  15 2.55  16 2.55  10 2.55
                             4 2.69   6 2.87   7 2.87   7 2.89   6 2.89   4 3.07
   9  0.500  0.000  0.000-   1 2.55   2 2.55   3 2.55   4 2.55   5 2.55   6 2.55   7 2.55   8 2.55
                            12 2.88  15 2.88  16 2.88  12 2.88  16 2.88  15 2.88
  10  0.000  0.500  0.000-   1 2.55   2 2.55   3 2.55   4 2.55   5 2.55   6 2.55   7 2.55   8 2.55
                            14 2.88  15 2.88  16 2.88  14 2.88  15 2.88  16 2.88
  11  0.000  0.000  0.500-   1 2.44   2 2.44   3 2.44   4 2.44   5 2.44   6 2.44   7 2.44   8 2.44
                            12 2.88  14 2.88  15 2.88  15 2.88  14 2.88  12 2.88
  12  0.500  0.000  0.500-   1 2.44   2 2.44   3 2.44   4 2.44   5 2.44   6 2.44   7 2.44   8 2.44
                             9 2.88  11 2.88  13 2.88   9 2.88  13 2.88  11 2.88
  13  0.500  0.500  0.500-   1 2.44   2 2.44   3 2.44   4 2.44   5 2.44   6 2.44   7 2.44   8 2.44
                            12 2.88  14 2.88  16 2.88  16 2.88  12 2.88  14 2.88
  14  0.000  0.500  0.500-   1 2.44   2 2.44   3 2.44   4 2.44   5 2.44   6 2.44   7 2.44   8 2.44
                            10 2.88  11 2.88  13 2.88  10 2.88  11 2.88  13 2.88
  15  0.000  0.000  0.000-   1 2.55   2 2.55   3 2.55   4 2.55   5 2.55   6 2.55   7 2.55   8 2.55
                             9 2.88  10 2.88  11 2.88  11 2.88  10 2.88   9 2.88
  16  0.500  0.500  0.000-   1 2.55   2 2.55   3 2.55   4 2.55   5 2.55   6 2.55   7 2.55   8 2.55
                             9 2.88  10 2.88  13 2.88  13 2.88   9 2.88  10 2.88

  LATTYP: Found a simple cubic cell.
 ALAT       =     5.7600000000

  Lattice vectors:

 A1 = (   5.7600000000,   0.0000000000,   0.0000000000)
 A2 = (   0.0000000000,   5.7600000000,   0.0000000000)
 A3 = (   0.0000000000,   0.0000000000,   5.7600000000)

Analysis of symmetry for initial positions (statically):
 Subroutine PRICEL returns:
 Original cell was already a primitive cell.

 Routine SETGRP: Setting up the symmetry group for a
 simple cubic supercell.

 Subroutine GETGRP returns: Found 16 space group operations
 (whereof  8 operations were pure point group operations)
 out of a pool of 48 trial point group operations.

The static configuration has the point symmetry D_2h.
 The point group associated with its full space group is D_4h.

Analysis of symmetry for dynamics (positions and initial velocities):
 Subroutine PRICEL returns:
 Original cell was already a primitive cell.

[...]

The dynamic configuration has the point symmetry D_2h.
 The point group associated with its full space group is D_4h.

Analysis of structural, dynamic, and magnetic symmetry:
 Subroutine PRICEL returns:
 Original cell was already a primitive cell.

 Routine SETGRP: Setting up the symmetry group for a
 simple cubic supercell.

 Subroutine GETGRP returns: Found 16 space group operations
 (whereof  8 operations were pure point group operations)
 out of a pool of 48 trial point group operations.

The magnetic configuration has the point symmetry D_2h.
 The point group associated with its full space group is D_4h.

 Subroutine INISYM returns: Found 16 space group operations
 (whereof  8 operations are pure point group operations),
 and found     1 'primitive' translations

 KPOINTS: k-points

Automatic generation of k-mesh.
Space group operators:
 irot       det(A)        alpha          n_x          n_y          n_z        tau_x        tau_y        tau_z
    1     1.000000     0.000001     1.000000     0.000000     0.000000     0.000000     0.000000     0.000000
    2    -1.000000     0.000001     1.000000     0.000000     0.000000     0.000000     0.000000     0.000000
    3     1.000000   180.000000     0.000000     0.000000     1.000000     0.000000     0.000000     0.000000
    4    -1.000000   180.000000     0.000000     0.000000     1.000000     0.000000     0.000000     0.000000
    5     1.000000   180.000000     1.000000     0.000000     0.000000     0.000000     0.000000     0.000000
    6    -1.000000   180.000000     1.000000     0.000000     0.000000     0.000000     0.000000     0.000000
    7     1.000000   180.000000     0.000000     1.000000     0.000000     0.000000     0.000000     0.000000
    8    -1.000000   180.000000     0.000000     1.000000     0.000000     0.000000     0.000000     0.000000
    9     1.000000    90.000000     0.000000     0.000000    -1.000000     0.500000     0.500000     0.000000
   10    -1.000000    90.000000     0.000000     0.000000    -1.000000     0.500000     0.500000     0.000000
   11     1.000000    90.000000     0.000000     0.000000     1.000000     0.500000     0.500000     0.000000
   12    -1.000000    90.000000     0.000000     0.000000     1.000000     0.500000     0.500000     0.000000
   13     1.000000   180.000000     0.707107     0.707107     0.000000     0.500000     0.500000     0.000000
   14    -1.000000   180.000000     0.707107     0.707107     0.000000     0.500000     0.500000     0.000000
   15     1.000000   180.000000     0.707107    -0.707107     0.000000     0.500000     0.500000     0.000000
   16    -1.000000   180.000000     0.707107    -0.707107     0.000000     0.500000     0.500000     0.000000

 Subroutine IBZKPT returns following result:

 Found     40 irreducible k-points:

 Following reciprocal coordinates:
            Coordinates               Weight
  0.000000  0.000000  0.000000      1.000000
  0.142857  0.000000  0.000000      4.000000
  0.285714  0.000000  0.000000      4.000000
  0.428571  0.000000  0.000000      4.000000
  0.142857  0.142857  0.000000      4.000000
  0.285714  0.142857  0.000000      8.000000
  0.428571  0.142857  0.000000      8.000000
  0.285714  0.285714  0.000000      4.000000
  0.428571  0.285714  0.000000      8.000000
  0.428571  0.428571  0.000000      4.000000
  0.000000  0.000000  0.142857      2.000000
  0.142857  0.000000  0.142857      8.000000
  0.285714  0.000000  0.142857      8.000000
  0.428571  0.000000  0.142857      8.000000
  0.142857  0.142857  0.142857      8.000000
  0.285714  0.142857  0.142857     16.000000
  0.428571  0.142857  0.142857     16.000000
  0.285714  0.285714  0.142857      8.000000
  0.428571  0.285714  0.142857     16.000000
  0.428571  0.428571  0.142857      8.000000
  0.000000  0.000000  0.285714      2.000000
  0.142857  0.000000  0.285714      8.000000
  0.285714  0.000000  0.285714      8.000000
  0.428571  0.000000  0.285714      8.000000
  0.142857  0.142857  0.285714      8.000000
  0.285714  0.142857  0.285714     16.000000
  0.428571  0.142857  0.285714     16.000000
  0.285714  0.285714  0.285714      8.000000
  0.428571  0.285714  0.285714     16.000000
  0.428571  0.428571  0.285714      8.000000
  0.000000  0.000000  0.428571      2.000000
[...]
  in kB     156.07026   156.07026   180.57768     0.00000     0.00000     0.00000

 VOLUME and BASIS-vectors are now :
  energy-cutoff  :      550.00
  volume of cell :      191.10
      direct lattice vectors                 reciprocal lattice vectors
     5.760000000  0.000000000  0.000000000     0.173611111  0.000000000  0.000000000
     0.000000000  5.760000000  0.000000000     0.000000000  0.173611111  0.000000000
     0.000000000  0.000000000  5.760000000     0.000000000  0.000000000  0.173611111

[...]

 FORCES acting on ions
    electron-ion (+dipol)            ewald-force                    non-local-force                 convergence-correction
   0.294E+01 -.294E+01 0.179E+03   -.299E+01 0.299E+01 -.177E+03   0.562E-01 -.562E-01 -.289E+01   0.181E-01 -.181E-01 -.181E-01
   -.294E+01 -.294E+01 0.179E+03   0.299E+01 0.299E+01 -.177E+03   -.562E-01 -.562E-01 -.289E+01   -.181E-01 -.181E-01 -.181E-01
   0.294E+01 0.294E+01 0.179E+03   -.299E+01 -.299E+01 -.177E+03   0.562E-01 0.562E-01 -.289E+01   0.181E-01 0.181E-01 -.181E-01
   -.294E+01 0.294E+01 0.179E+03   0.299E+01 -.299E+01 -.177E+03   -.562E-01 0.562E-01 -.289E+01   -.181E-01 0.181E-01 -.181E-01
   0.294E+01 -.294E+01 -.179E+03   -.299E+01 0.299E+01 0.177E+03   0.562E-01 -.562E-01 0.289E+01   0.181E-01 -.181E-01 0.181E-01
   -.294E+01 -.294E+01 -.179E+03   0.299E+01 0.299E+01 0.177E+03   -.562E-01 -.562E-01 0.289E+01   -.181E-01 -.181E-01 0.181E-01
   0.294E+01 0.294E+01 -.179E+03   -.299E+01 -.299E+01 0.177E+03   0.562E-01 0.562E-01 0.289E+01   0.181E-01 0.181E-01 0.181E-01
   -.294E+01 0.294E+01 -.179E+03   0.299E+01 -.299E+01 0.177E+03   -.562E-01 0.562E-01 0.289E+01   -.181E-01 0.181E-01 0.181E-01
   0.169E-12 0.181E-13 -.571E-12   -.145E-13 0.491E-13 -.201E-13   0.000E+00 0.000E+00 0.000E+00   -.662E-13 0.491E-13 0.522E-13
   -.290E-13 0.194E-12 -.682E-13   0.118E-13 0.790E-13 -.202E-13   0.000E+00 0.000E+00 0.000E+00   0.507E-13 -.572E-13 0.268E-13
   -.280E-13 -.319E-13 0.209E-12   0.225E-13 0.537E-13 -.252E-13   0.000E+00 0.000E+00 0.000E+00   0.888E-13 0.949E-14 -.277E-13
   0.155E-12 -.296E-13 0.158E-11   0.336E-13 0.412E-13 0.317E-13   0.000E+00 0.000E+00 0.000E+00   -.727E-13 0.292E-13 -.434E-13
   0.159E-12 0.165E-12 0.952E-12   0.126E-12 -.147E-13 0.742E-13   0.000E+00 0.000E+00 0.000E+00   -.460E-13 -.144E-13 -.404E-13
   -.303E-13 0.180E-12 0.205E-12   -.153E-12 0.154E-13 0.313E-14   0.000E+00 0.000E+00 0.000E+00   0.566E-13 -.226E-13 -.172E-13
   -.567E-14 -.422E-14 -.232E-13   -.106E-13 0.113E-13 0.627E-14   0.000E+00 0.000E+00 0.000E+00   0.193E-13 0.129E-13 0.116E-13
   -.787E-15 -.499E-12 0.202E-13   0.412E-13 0.208E-14 0.271E-14   0.000E+00 0.000E+00 0.000E+00   -.142E-13 -.134E-13 0.115E-13
   0.974E-11 0.244E-10 -.420E-10   -.383E-16 0.310E-13 0.109E-12   0.694E-17 0.000E+00 -.444E-15   0.123E-12 0.123E-12 -.300E-12

 POSITION                                       TOTAL-FORCE (eV/Angst)
      1.44284      1.43716      1.53602         0.019638     -0.019638     -0.001352
      4.31716      1.43716      1.53602        -0.019638     -0.019638     -0.001352
      1.44284      4.32284      1.53602         0.019638      0.019638     -0.001352
      4.31716      4.32284      1.53602        -0.019638      0.019638     -0.001352
      1.44284      1.43716      4.22398         0.019638     -0.019638      0.001352
      4.31716      1.43716      4.22398        -0.019638     -0.019638      0.001352
      1.44284      4.32284      4.22398         0.019638      0.019638      0.001352
      4.31716      4.32284      4.22398        -0.019638      0.019638      0.001352
      2.88000      0.00000      0.00000         0.000000      0.000000      0.000000
      0.00000      2.88000      0.00000         0.000000      0.000000      0.000000
      0.00000      0.00000      2.88000         0.000000      0.000000      0.000000
      2.88000      0.00000      2.88000         0.000000      0.000000      0.000000
      2.88000      2.88000      2.88000         0.000000      0.000000      0.000000
      0.00000      2.88000      2.88000         0.000000      0.000000      0.000000
      0.00000      0.00000      0.00000         0.000000      0.000000      0.000000
      2.88000      2.88000      0.00000         0.000000      0.000000      0.000000
    total drift:                                0.000000      0.000000     -0.000000

  FREE ENERGIE OF THE ION-ELECTRON SYSTEM (eV)
  free  energy   TOTEN  =      -102.40070562 eV

  energy  without entropy=     -102.39942591  energy(sigma->0) =     -102.40006576

[...]

 d Force = 0.2147324E-03[ 0.131E-03, 0.298E-03]  d Energy = 0.2216990E-03-0.697E-05
 d Force = 0.3910653E-01[ 0.315E-01, 0.467E-01]  d Ewald  = 0.3910653E-01 0.406E-09

 Steepest descent step on ions:
 trial-energy change:   -0.000222  1 .order   -0.000215   -0.000298   -0.000131
  (g-gl).g = 0.298E-03      g.g   = 0.298E-03  gl.gl    = 0.000E+00
 g(Force)  = 0.298E-03   g(Stress)= 0.000E+00 ortho     = 0.000E+00
 gamma     =   0.00000
 trial     =   1.00000
 opt step  =   1.78335  (harmonic =   1.78335) maximal distance =0.00168955
 next E    =  -102.400972   (d E  =  -0.00027)

[...]

 eigenvalue-minimisations  : 13617
 total energy-change (2. order) :-0.2081629E-03  (-0.9682525E-04)
 number of electron     128.0000306 magnetization       0.4894546
 augmentation part       67.4792926 magnetization       0.1633489

[...]

 Broyden mixing:
  rms(total) = 0.33377E-02    rms(broyden)= 0.33375E-02
  rms(prec ) = 0.38845E-02
  weight for this iteration     100.00

 eigenvalues of (default mixing * dielectric matrix)
  average eigenvalue GAMMA=   0.4269
  0.6137  0.2401

[...]

--------------------------------------- Iteration      3(   4)  ---------------------------------------

 eigenvalue-minimisations  :  9281
 total energy-change (2. order) : 0.1508488E-06  (-0.3130082E-05)
 number of electron     128.0000306 magnetization       0.4890465
 augmentation part       67.4799570 magnetization       0.1615178

 Free energy of the ion-electron system (eV)
  alpha Z        PSCENC =       588.81641228
  Ewald energy   TEWEN  =     -9622.71888885
  -Hartree energ DENC   =     -2776.45805561
  -exchange      EXHF   =         0.00000000
  -V(xc)+E(xc)   XCENC  =        77.15857742
  PAW double counting   =     13743.33186129   -14093.32005938
  entropy T*S    EENTRO =        -0.00127983
  eigenvalues    EBANDS =       751.32848906
  atomic energy  EATOM  =     11229.46195210
  Solvation  Ediel_sol  =         0.00000000
  free energy    TOTEN  =      -102.40099155 eV

  energy without entropy =     -102.39971171  energy(sigma->0) =     -102.40035163

 average (electrostatic) potential at core
  the test charge radii are     0.9791  1.0210  1.4837
  (the norm of the test charge is              1.0000)
       1 -82.9098       2 -82.9098       3 -82.9098       4 -82.9098       5 -82.9098
       6 -82.9098       7 -82.9098       8 -82.9098       9 -41.4352      10 -41.1567
      11 -41.2075      12 -41.0406      13 -41.2075      14 -41.3659      15 -33.3924
      16 -33.3924

 E-fermi :   8.5303     XC(G=0): -12.8564     alpha+bet :-15.6553

[...]

 spin component 2

[...]

 k-point    40 :       0.4286    0.4286    0.4286
  band No.  band energies     occupation
      1       0.6888      1.00000
      2       0.8945      1.00000
      3       2.2148      1.00000
      4       2.4108      1.00000
      5       2.5370      1.00000
      6       2.6272      1.00000
      7       3.2360      1.00000
      8       3.5175      1.00000
      9       4.5644      1.00000
     10       4.5896      1.00000
     11       4.7527      1.00000
     12       4.8422      1.00000
     13       4.9601      1.00000
     14       4.9846      1.00000
     15       5.0121      1.00000
     16       5.0918      1.00000
     17       5.1018      1.00000
     18       5.1386      1.00000
     19       5.1581      1.00000
     20       5.1876      1.00000
     21       5.2874      1.00000
     22       5.3043      1.00000
     23       5.3717      1.00000
     24       5.5315      1.00000
     25       5.5547      1.00000
     26       5.5889      1.00000
     27       5.6630      1.00000
     28       5.6710      1.00000
     29       5.8731      1.00000
     30       5.9882      1.00000
     31       6.0922      1.00000
     32       6.0937      1.00000
     33       6.1271      1.00000
     34       6.1482      1.00000
     35       6.2249      1.00000
     36       6.2448      1.00000
     37       6.2856      1.00000
     38       6.2973      1.00000
     39       6.3549      1.00000
     40       6.3609      1.00000
     41       6.3785      1.00000
     42       6.4044      1.00000
     43       6.6269      1.00000
     44       6.6682      1.00000
     45       6.6901      1.00000
     46       6.7148      1.00000
     47       6.9297      1.00000
     48       6.9348      1.00000
     49       7.3328      1.00000
     50       7.3423      1.00000
     51       7.4842      1.00000
     52       7.5194      1.00000
     53       7.5586      1.00000
     54       7.6015      1.00000
     55       7.6314      1.00000
     56       7.6438      1.00000
     57       7.7709      1.00000
     58       7.7817      1.00000
     59       7.8299      1.00000
     60       7.9085      1.00000
[...]
     70       9.4973      0.00000
     71       9.5805      0.00000
     72       9.5875      0.00000
     73       9.6060      0.00000
     74       9.6460      0.00000
     75       9.7175      0.00000
     76       9.8269      0.00000
     77       9.9169      0.00000
     78       9.9881      0.00000
     79      12.7293      0.00000
     80      12.8778      0.00000
     81      13.0255      0.00000
     82      13.3443      0.00000
     83      13.6486      0.00000
     84      13.8648      0.00000

[...]

 soft charge-density along one line, spin component           2
         0         1         2         3         4         5         6         7         8         9
 total charge-density along one line

------------------------ aborting loop because EDIFF is reached ----------------------------------------

[...]

  FORCE on cell =-STRESS in cart. coord.  units (eV):
  Direction    XX          YY          ZZ          XY          YZ          ZX
  Alpha Z   588.81641   588.81641   588.81641
  Ewald   -3095.58945 -3095.58945 -3431.56942    -0.00000    -0.00000     0.00000
  Hartree  1028.91953  1028.91953   718.55455    -0.00000    -0.00000    -0.00000
  E(xc)    -675.69082  -675.69082  -676.01512    -0.00000     0.00000     0.00000
  Local    -356.85670  -356.85670   287.14600     0.00000     0.00000    -0.00000
  n-local  -125.99710  -121.45882  -122.70643    -0.45920    -1.14674     0.28998
  augment  1573.69278  1573.69278  1575.62391     0.00000    -0.00000    -0.00000
  Kinetic  1069.98862  1088.14335  1081.66052     0.94928     0.52677     1.55730
  Fock        0.00000     0.00000     0.00000     0.00000     0.00000     0.00000
  Total      18.62977    18.62977    21.51043    -0.00000     0.00000     0.00000
  in kB     156.18905   156.18905   180.34003    -0.00000     0.00000     0.00000

 VOLUME and BASIS-vectors are now :
  energy-cutoff  :      550.00
  volume of cell :      191.10
      direct lattice vectors                 reciprocal lattice vectors
     5.760000000  0.000000000  0.000000000     0.173611111  0.000000000  0.000000000
     0.000000000  5.760000000  0.000000000     0.000000000  0.173611111  0.000000000
     0.000000000  0.000000000  5.760000000     0.000000000  0.000000000  0.173611111

  length of vectors
     5.760000000  5.760000000  5.760000000     0.173611111  0.173611111  0.173611111

 FORCES acting on ions
    electron-ion (+dipol)            ewald-force                    non-local-force                 convergence-correction
   0.475E+01 -.475E+01 0.179E+03   -.477E+01 0.477E+01 -.176E+03   0.201E-01 -.201E-01 -.288E+01   0.954E-02 -.954E-02 -.166E-01
   -.475E+01 -.475E+01 0.179E+03   0.477E+01 0.477E+01 -.176E+03   -.201E-01 -.201E-01 -.288E+01   -.954E-02 -.954E-02 -.166E-01
   0.475E+01 0.475E+01 0.179E+03   -.477E+01 -.477E+01 -.176E+03   0.201E-01 0.201E-01 -.288E+01   0.954E-02 0.954E-02 -.166E-01
   -.475E+01 0.475E+01 0.179E+03   0.477E+01 -.477E+01 -.176E+03   -.201E-01 0.201E-01 -.288E+01   -.954E-02 0.954E-02 -.166E-01
   0.475E+01 -.475E+01 -.179E+03   -.477E+01 0.477E+01 0.176E+03   0.201E-01 -.201E-01 0.288E+01   0.954E-02 -.954E-02 0.166E-01
   -.475E+01 -.475E+01 -.179E+03   0.477E+01 0.477E+01 0.176E+03   -.201E-01 -.201E-01 0.288E+01   -.954E-02 -.954E-02 0.166E-01
   0.475E+01 0.475E+01 -.179E+03   -.477E+01 -.477E+01 0.176E+03   0.201E-01 0.201E-01 0.288E+01   0.954E-02 0.954E-02 0.166E-01
   -.475E+01 0.475E+01 -.179E+03   0.477E+01 -.477E+01 0.176E+03   -.201E-01 0.201E-01 0.288E+01   -.954E-02 0.954E-02 0.166E-01
   0.204E-12 0.271E-13 -.582E-12   -.287E-13 0.491E-13 0.651E-13   0.000E+00 0.000E+00 0.000E+00   0.988E-12 -.483E-12 0.221E-12
   -.374E-13 0.168E-12 -.859E-13   -.243E-14 0.506E-13 0.824E-14   0.000E+00 0.000E+00 0.000E+00   -.106E-11 0.623E-12 -.131E-12
   -.342E-13 -.244E-13 0.220E-12   -.591E-14 -.103E-12 -.110E-13   0.000E+00 0.000E+00 0.000E+00   0.146E-11 0.676E-12 -.625E-12
   0.190E-12 -.146E-13 0.159E-11   0.176E-12 0.128E-13 -.110E-12   0.000E+00 0.000E+00 0.000E+00   -.145E-11 0.681E-12 -.623E-12
   0.198E-12 0.121E-12 0.962E-12   -.187E-12 0.280E-13 0.458E-13   0.000E+00 0.000E+00 0.000E+00   -.133E-11 -.504E-12 -.327E-12
   -.435E-13 0.147E-12 0.214E-12   -.396E-13 -.556E-13 0.173E-13   0.000E+00 0.000E+00 0.000E+00   0.133E-11 -.524E-12 -.314E-12
   -.105E-13 -.100E-13 -.286E-13   -.708E-14 0.771E-14 -.794E-14   0.000E+00 0.000E+00 0.000E+00   -.233E-12 -.123E-12 0.103E-12
   0.863E-14 -.501E-12 0.192E-13   0.412E-13 -.121E-13 0.134E-13   0.000E+00 0.000E+00 0.000E+00   0.231E-12 0.116E-12 0.508E-14
   0.118E-10 -.152E-11 -.162E-10   -.383E-16 0.258E-14 0.489E-13   -.694E-17 0.694E-17 0.444E-15   0.327E-12 0.611E-11 0.575E-11

 POSITION                                       TOTAL-FORCE (eV/Angst)
      1.44453      1.43547      1.53590         0.002856     -0.002856      0.006662
      4.31547      1.43547      1.53590        -0.002856     -0.002856      0.006662
      1.44453      4.32453      1.53590         0.002856      0.002856      0.006662
      4.31547      4.32453      1.53590        -0.002856      0.002856      0.006662
      1.44453      1.43547      4.22410         0.002856     -0.002856     -0.006662
      4.31547      1.43547      4.22410        -0.002856     -0.002856     -0.006662
      1.44453      4.32453      4.22410         0.002856      0.002856     -0.006662
      4.31547      4.32453      4.22410        -0.002856      0.002856     -0.006662
      2.88000      0.00000      0.00000        -0.000000      0.000000     -0.000000
      0.00000      2.88000      0.00000        -0.000000      0.000000     -0.000000
      0.00000      0.00000      2.88000        -0.000000      0.000000     -0.000000
      2.88000      0.00000      2.88000        -0.000000      0.000000     -0.000000
      2.88000      2.88000      2.88000        -0.000000      0.000000     -0.000000
      0.00000      2.88000      2.88000        -0.000000      0.000000     -0.000000
      0.00000      0.00000      0.00000        -0.000000      0.000000     -0.000000
      2.88000      2.88000      0.00000        -0.000000      0.000000     -0.000000
    total drift:                                0.000000      0.000000     -0.000000

  FREE ENERGIE OF THE ION-ELECTRON SYSTEM (eV)
  free  energy   TOTEN  =      -102.40099155 eV

  energy  without entropy=     -102.39971171  energy(sigma->0) =     -102.40035163

 d Force = 0.6693221E-04[ 0.312E-04, 0.103E-03]  d Energy = 0.6422741E-04 0.270E-05
 d Force = 0.2004317E-01[ 0.154E-01, 0.247E-01]  d Ewald  = 0.2004317E-01-0.137E-08

 reached required accuracy - stopping structural energy minimisation

 total charge

[...]

 magnetization (x)

# of ion       s       p       d       tot
    1        0.004   0.004  -0.018  -0.010
    2        0.003  -0.003  -0.027  -0.027
    3        0.003   0.002  -0.020  -0.015
    4        0.004   0.006   0.003   0.013
    5        0.004   0.006   0.003   0.013
    6        0.003   0.002  -0.020  -0.015
    7        0.003  -0.003  -0.027  -0.027
    8        0.004   0.004  -0.018  -0.010
    9        0.032   0.055   3.329   3.415
   10        0.030   0.016   3.443   3.489
   11       -0.024  -0.023  -3.129  -3.176
   12       -0.026  -0.011  -3.274  -3.310
   13       -0.019  -0.035  -3.157  -3.211
   14        0.026   0.056   3.225   3.306
   15        0.001  -0.065   0.008  -0.055
   16        0.007  -0.055  -0.002  -0.050
tot          0.055  -0.045   0.320   0.330